p cnf 1603 3214
1 2 3 4 5 6 7 8 9 10 0
-1 11 0
-11 12 0
-2 -11 0
-2 12 0
-12 13 0
-3 -12 0
-3 13 0
-13 14 0
-4 -13 0
-4 14 0
-14 15 0
-5 -14 0
-5 15 0
-15 16 0
-6 -15 0
-6 16 0
-16 17 0
-7 -16 0
-7 17 0
-17 18 0
-8 -17 0
-8 18 0
-18 19 0
-9 -18 0
-9 19 0
-10 -19 0
20 30 0
-30 31 0
21 -30 32 0
-32 33 0
22 -32 34 0
-34 35 0
23 -34 36 0
-36 37 0
24 -36 38 0
-38 39 0
25 -38 40 0
-40 41 0
26 -40 42 0
-42 43 0
27 -42 44 0
-44 45 0
28 -44 0
21 31 0
22 -31 33 0
23 -33 35 0
24 -35 37 0
25 -37 39 0
26 -39 41 0
27 -41 43 0
28 -43 45 0
29 -45 0
-20 46 0
-46 47 0
-21 -46 48 0
-48 49 0
-22 -48 0
-21 47 0
-47 50 0
-22 -47 49 0
-49 51 0
-23 -49 0
-22 50 0
-50 52 0
-23 -50 51 0
-51 53 0
-24 -51 0
-23 52 0
-52 54 0
-24 -52 53 0
-53 55 0
-25 -53 0
-24 54 0
-54 56 0
-25 -54 55 0
-55 57 0
-26 -55 0
-25 56 0
-56 58 0
-26 -56 57 0
-57 59 0
-27 -57 0
-26 58 0
-58 60 0
-27 -58 59 0
-59 61 0
-28 -59 0
-27 60 0
-28 -60 61 0
-29 -61 0
1 71 0
-71 72 0
20 -71 73 0
-73 74 0
62 -73 75 0
-75 76 0
63 -75 77 0
-77 78 0
64 -77 79 0
-79 80 0
65 -79 81 0
-81 82 0
66 -81 83 0
-83 84 0
67 -83 85 0
-85 86 0
68 -85 87 0
-87 88 0
69 -87 0
20 72 0
62 -72 74 0
63 -74 76 0
64 -76 78 0
65 -78 80 0
66 -80 82 0
67 -82 84 0
68 -84 86 0
69 -86 88 0
70 -88 0
-1 89 0
-89 90 0
-20 -89 91 0
-91 92 0
-62 -91 0
-20 90 0
-90 93 0
-62 -90 92 0
-92 94 0
-63 -92 0
-62 93 0
-93 95 0
-63 -93 94 0
-94 96 0
-64 -94 0
-63 95 0
-95 97 0
-64 -95 96 0
-96 98 0
-65 -96 0
-64 97 0
-97 99 0
-65 -97 98 0
-98 100 0
-66 -98 0
-65 99 0
-99 101 0
-66 -99 100 0
-100 102 0
-67 -100 0
-66 101 0
-101 103 0
-67 -101 102 0
-102 104 0
-68 -102 0
-67 103 0
-103 105 0
-68 -103 104 0
-104 106 0
-69 -104 0
-68 105 0
-69 -105 106 0
-70 -106 0
2 21 62 107 108 109 110 111 112 113 114 0
-2 115 0
-115 116 0
-21 -115 0
-21 116 0
-116 117 0
-62 -116 0
-62 117 0
-117 118 0
-107 -117 0
-107 118 0
-118 119 0
-108 -118 0
-108 119 0
-119 120 0
-109 -119 0
-109 120 0
-120 121 0
-110 -120 0
-110 121 0
-121 122 0
-111 -121 0
-111 122 0
-122 123 0
-112 -122 0
-112 123 0
-123 124 0
-113 -123 0
-113 124 0
-114 -124 0
3 133 0
-133 134 0
107 -133 135 0
-135 136 0
125 -135 137 0
-137 138 0
126 -137 139 0
-139 140 0
127 -139 141 0
-141 142 0
128 -141 143 0
-143 144 0
129 -143 145 0
-145 146 0
130 -145 147 0
-147 148 0
131 -147 0
107 134 0
125 -134 136 0
126 -136 138 0
127 -138 140 0
128 -140 142 0
129 -142 144 0
130 -144 146 0
131 -146 148 0
132 -148 0
-3 149 0
-149 150 0
-107 -149 151 0
-151 152 0
-125 -151 0
-107 150 0
-150 153 0
-125 -150 152 0
-152 154 0
-126 -152 0
-125 153 0
-153 155 0
-126 -153 154 0
-154 156 0
-127 -154 0
-126 155 0
-155 157 0
-127 -155 156 0
-156 158 0
-128 -156 0
-127 157 0
-157 159 0
-128 -157 158 0
-158 160 0
-129 -158 0
-128 159 0
-159 161 0
-129 -159 160 0
-160 162 0
-130 -160 0
-129 161 0
-161 163 0
-130 -161 162 0
-162 164 0
-131 -162 0
-130 163 0
-131 -163 164 0
-132 -164 0
4 22 63 125 165 166 167 168 169 170 171 0
-4 172 0
-172 173 0
-22 -172 0
-22 173 0
-173 174 0
-63 -173 0
-63 174 0
-174 175 0
-125 -174 0
-125 175 0
-175 176 0
-165 -175 0
-165 176 0
-176 177 0
-166 -176 0
-166 177 0
-177 178 0
-167 -177 0
-167 178 0
-178 179 0
-168 -178 0
-168 179 0
-179 180 0
-169 -179 0
-169 180 0
-180 181 0
-170 -180 0
-170 181 0
-171 -181 0
5 188 0
-188 189 0
23 -188 190 0
-190 191 0
64 -190 192 0
-192 193 0
108 -192 194 0
-194 195 0
126 -194 196 0
-196 197 0
165 -196 198 0
-198 199 0
182 -198 200 0
-200 201 0
183 -200 202 0
-202 203 0
184 -202 204 0
-204 205 0
185 -204 206 0
-206 207 0
186 -206 0
23 189 0
64 -189 191 0
108 -191 193 0
126 -193 195 0
165 -195 197 0
182 -197 199 0
183 -199 201 0
184 -201 203 0
185 -203 205 0
186 -205 207 0
187 -207 0
-5 208 0
-208 209 0
-23 -208 210 0
-210 211 0
-64 -210 0
-23 209 0
-209 212 0
-64 -209 211 0
-211 213 0
-108 -211 0
-64 212 0
-212 214 0
-108 -212 213 0
-213 215 0
-126 -213 0
-108 214 0
-214 216 0
-126 -214 215 0
-215 217 0
-165 -215 0
-126 216 0
-216 218 0
-165 -216 217 0
-217 219 0
-182 -217 0
-165 218 0
-218 220 0
-182 -218 219 0
-219 221 0
-183 -219 0
-182 220 0
-220 222 0
-183 -220 221 0
-221 223 0
-184 -221 0
-183 222 0
-222 224 0
-184 -222 223 0
-223 225 0
-185 -223 0
-184 224 0
-224 226 0
-185 -224 225 0
-225 227 0
-186 -225 0
-185 226 0
-186 -226 227 0
-187 -227 0
24 234 0
-234 235 0
65 -234 236 0
-236 237 0
109 -236 238 0
-238 239 0
127 -238 240 0
-240 241 0
166 -240 242 0
-242 243 0
182 -242 244 0
-244 245 0
228 -244 246 0
-246 247 0
229 -246 248 0
-248 249 0
230 -248 250 0
-250 251 0
231 -250 252 0
-252 253 0
232 -252 0
65 235 0
109 -235 237 0
127 -237 239 0
166 -239 241 0
182 -241 243 0
228 -243 245 0
229 -245 247 0
230 -247 249 0
231 -249 251 0
232 -251 253 0
233 -253 0
-24 254 0
-254 255 0
-65 -254 256 0
-256 257 0
-109 -256 0
-65 255 0
-255 258 0
-109 -255 257 0
-257 259 0
-127 -257 0
-109 258 0
-258 260 0
-127 -258 259 0
-259 261 0
-166 -259 0
-127 260 0
-260 262 0
-166 -260 261 0
-261 263 0
-182 -261 0
-166 262 0
-262 264 0
-182 -262 263 0
-263 265 0
-228 -263 0
-182 264 0
-264 266 0
-228 -264 265 0
-265 267 0
-229 -265 0
-228 266 0
-266 268 0
-229 -266 267 0
-267 269 0
-230 -267 0
-229 268 0
-268 270 0
-230 -268 269 0
-269 271 0
-231 -269 0
-230 270 0
-270 272 0
-231 -270 271 0
-271 273 0
-232 -271 0
-231 272 0
-232 -272 273 0
-233 -273 0
6 279 0
-279 280 0
66 -279 281 0
-281 282 0
110 -281 283 0
-283 284 0
128 -283 285 0
-285 286 0
167 -285 287 0
-287 288 0
183 -287 289 0
-289 290 0
228 -289 291 0
-291 292 0
274 -291 293 0
-293 294 0
275 -293 295 0
-295 296 0
276 -295 297 0
-297 298 0
277 -297 0
66 280 0
110 -280 282 0
128 -282 284 0
167 -284 286 0
183 -286 288 0
228 -288 290 0
274 -290 292 0
275 -292 294 0
276 -294 296 0
277 -296 298 0
278 -298 0
-6 299 0
-299 300 0
-66 -299 301 0
-301 302 0
-110 -301 0
-66 300 0
-300 303 0
-110 -300 302 0
-302 304 0
-128 -302 0
-110 303 0
-303 305 0
-128 -303 304 0
-304 306 0
-167 -304 0
-128 305 0
-305 307 0
-167 -305 306 0
-306 308 0
-183 -306 0
-167 307 0
-307 309 0
-183 -307 308 0
-308 310 0
-228 -308 0
-183 309 0
-309 311 0
-228 -309 310 0
-310 312 0
-274 -310 0
-228 311 0
-311 313 0
-274 -311 312 0
-312 314 0
-275 -312 0
-274 313 0
-313 315 0
-275 -313 314 0
-314 316 0
-276 -314 0
-275 315 0
-315 317 0
-276 -315 316 0
-316 318 0
-277 -316 0
-276 317 0
-277 -317 318 0
-278 -318 0
-25 0
-111 0
-129 0
-168 0
-184 0
-229 0
-274 0
-319 0
-320 0
-321 0
7 26 67 130 169 185 230 275 319 322 323 0
-7 324 0
-324 325 0
-26 -324 0
-26 325 0
-325 326 0
-67 -325 0
-67 326 0
-326 327 0
-130 -326 0
-130 327 0
-327 328 0
-169 -327 0
-169 328 0
-328 329 0
-185 -328 0
-185 329 0
-329 330 0
-230 -329 0
-230 330 0
-330 331 0
-275 -330 0
-275 331 0
-331 332 0
-319 -331 0
-319 332 0
-332 333 0
-322 -332 0
-322 333 0
-323 -333 0
8 336 0
-336 337 0
27 -336 338 0
-338 339 0
68 -338 340 0
-340 341 0
112 -340 342 0
-342 343 0
170 -342 344 0
-344 345 0
186 -344 346 0
-346 347 0
231 -346 348 0
-348 349 0
276 -348 350 0
-350 351 0
320 -350 352 0
-352 353 0
322 -352 354 0
-354 355 0
334 -354 0
27 337 0
68 -337 339 0
112 -339 341 0
170 -341 343 0
186 -343 345 0
231 -345 347 0
276 -347 349 0
320 -349 351 0
322 -351 353 0
334 -353 355 0
335 -355 0
-8 356 0
-356 357 0
-27 -356 358 0
-358 359 0
-68 -358 0
-27 357 0
-357 360 0
-68 -357 359 0
-359 361 0
-112 -359 0
-68 360 0
-360 362 0
-112 -360 361 0
-361 363 0
-170 -361 0
-112 362 0
-362 364 0
-170 -362 363 0
-363 365 0
-186 -363 0
-170 364 0
-364 366 0
-186 -364 365 0
-365 367 0
-231 -365 0
-186 366 0
-366 368 0
-231 -366 367 0
-367 369 0
-276 -367 0
-231 368 0
-368 370 0
-276 -368 369 0
-369 371 0
-320 -369 0
-276 370 0
-370 372 0
-320 -370 371 0
-371 373 0
-322 -371 0
-320 372 0
-372 374 0
-322 -372 373 0
-373 375 0
-334 -373 0
-322 374 0
-334 -374 375 0
-335 -375 0
9 28 69 113 131 187 232 277 321 334 0
-9 376 0
-376 377 0
-28 -376 0
-28 377 0
-377 378 0
-69 -377 0
-69 378 0
-378 379 0
-113 -378 0
-113 379 0
-379 380 0
-131 -379 0
-131 380 0
-380 381 0
-187 -380 0
-187 381 0
-381 382 0
-232 -381 0
-232 382 0
-382 383 0
-277 -382 0
-277 383 0
-383 384 0
-321 -383 0
-321 384 0
-334 -384 0
10 29 70 114 132 171 233 278 323 335 0
-10 385 0
-385 386 0
-29 -385 0
-29 386 0
-386 387 0
-70 -386 0
-70 387 0
-387 388 0
-114 -387 0
-114 388 0
-388 389 0
-132 -388 0
-132 389 0
-389 390 0
-171 -389 0
-171 390 0
-390 391 0
-233 -390 0
-233 391 0
-391 392 0
-278 -391 0
-278 392 0
-392 393 0
-323 -392 0
-323 393 0
-335 -393 0
-394 0
-395 0
-396 0
-397 0
-398 0
-399 0
-400 0
-401 0
-402 0
-403 0
-394 0
-404 0
-405 0
-406 0
-407 0
-408 0
-409 0
-410 0
-411 0
-412 0
395 404 413 414 415 416 417 418 419 420 0
-395 421 0
-421 422 0
-404 -421 0
-404 422 0
-422 423 0
-413 -422 0
-413 423 0
-423 424 0
-414 -423 0
-414 424 0
-424 425 0
-415 -424 0
-415 425 0
-425 426 0
-416 -425 0
-416 426 0
-426 427 0
-417 -426 0
-417 427 0
-427 428 0
-418 -427 0
-418 428 0
-428 429 0
-419 -428 0
-419 429 0
-420 -429 0
396 405 413 430 431 432 433 434 435 436 0
-396 437 0
-437 438 0
-405 -437 0
-405 438 0
-438 439 0
-413 -438 0
-413 439 0
-439 440 0
-430 -439 0
-430 440 0
-440 441 0
-431 -440 0
-431 441 0
-441 442 0
-432 -441 0
-432 442 0
-442 443 0
-433 -442 0
-433 443 0
-443 444 0
-434 -443 0
-434 444 0
-444 445 0
-435 -444 0
-435 445 0
-436 -445 0
397 406 414 430 446 447 448 449 450 451 0
-397 452 0
-452 453 0
-406 -452 0
-406 453 0
-453 454 0
-414 -453 0
-414 454 0
-454 455 0
-430 -454 0
-430 455 0
-455 456 0
-446 -455 0
-446 456 0
-456 457 0
-447 -456 0
-447 457 0
-457 458 0
-448 -457 0
-448 458 0
-458 459 0
-449 -458 0
-449 459 0
-459 460 0
-450 -459 0
-450 460 0
-451 -460 0
398 407 415 431 446 461 462 463 464 465 0
-398 466 0
-466 467 0
-407 -466 0
-407 467 0
-467 468 0
-415 -467 0
-415 468 0
-468 469 0
-431 -468 0
-431 469 0
-469 470 0
-446 -469 0
-446 470 0
-470 471 0
-461 -470 0
-461 471 0
-471 472 0
-462 -471 0
-462 472 0
-472 473 0
-463 -472 0
-463 473 0
-473 474 0
-464 -473 0
-464 474 0
-465 -474 0
399 408 416 432 447 461 475 476 477 478 0
-399 479 0
-479 480 0
-408 -479 0
-408 480 0
-480 481 0
-416 -480 0
-416 481 0
-481 482 0
-432 -481 0
-432 482 0
-482 483 0
-447 -482 0
-447 483 0
-483 484 0
-461 -483 0
-461 484 0
-484 485 0
-475 -484 0
-475 485 0
-485 486 0
-476 -485 0
-476 486 0
-486 487 0
-477 -486 0
-477 487 0
-478 -487 0
400 409 417 433 448 462 475 488 489 490 0
-400 491 0
-491 492 0
-409 -491 0
-409 492 0
-492 493 0
-417 -492 0
-417 493 0
-493 494 0
-433 -493 0
-433 494 0
-494 495 0
-448 -494 0
-448 495 0
-495 496 0
-462 -495 0
-462 496 0
-496 497 0
-475 -496 0
-475 497 0
-497 498 0
-488 -497 0
-488 498 0
-498 499 0
-489 -498 0
-489 499 0
-490 -499 0
-401 0
-410 0
-418 0
-434 0
-449 0
-463 0
-476 0
-488 0
-500 0
-501 0
402 411 419 435 450 464 477 489 500 502 0
-402 503 0
-503 504 0
-411 -503 0
-411 504 0
-504 505 0
-419 -504 0
-419 505 0
-505 506 0
-435 -505 0
-435 506 0
-506 507 0
-450 -506 0
-450 507 0
-507 508 0
-464 -507 0
-464 508 0
-508 509 0
-477 -508 0
-477 509 0
-509 510 0
-489 -509 0
-489 510 0
-510 511 0
-500 -510 0
-500 511 0
-502 -511 0
403 412 420 436 451 465 478 490 501 502 0
-403 512 0
-512 513 0
-412 -512 0
-412 513 0
-513 514 0
-420 -513 0
-420 514 0
-514 515 0
-436 -514 0
-436 515 0
-515 516 0
-451 -515 0
-451 516 0
-516 517 0
-465 -516 0
-465 517 0
-517 518 0
-478 -517 0
-478 518 0
-518 519 0
-490 -518 0
-490 519 0
-519 520 0
-501 -519 0
-501 520 0
-502 -520 0
6 521 0
-521 522 0
24 -521 523 0
-523 524 0
67 -523 525 0
-525 526 0
70 -525 527 0
-527 528 0
114 -527 529 0
-529 530 0
126 -529 531 0
-531 532 0
131 -531 533 0
-533 534 0
165 -533 535 0
-535 536 0
320 -535 537 0
-537 538 0
321 -537 0
24 522 0
67 -522 524 0
70 -524 526 0
114 -526 528 0
126 -528 530 0
131 -530 532 0
165 -532 534 0
320 -534 536 0
321 -536 538 0
322 -538 0
-6 539 0
-539 540 0
-24 -539 541 0
-541 542 0
-67 -541 0
-24 540 0
-540 543 0
-67 -540 542 0
-542 544 0
-70 -542 0
-67 543 0
-543 545 0
-70 -543 544 0
-544 546 0
-114 -544 0
-70 545 0
-545 547 0
-114 -545 546 0
-546 548 0
-126 -546 0
-114 547 0
-547 549 0
-126 -547 548 0
-548 550 0
-131 -548 0
-126 549 0
-549 551 0
-131 -549 550 0
-550 552 0
-165 -550 0
-131 551 0
-551 553 0
-165 -551 552 0
-552 554 0
-320 -552 0
-165 553 0
-553 555 0
-320 -553 554 0
-554 556 0
-321 -554 0
-320 555 0
-321 -555 556 0
-322 -556 0
-557 0
-558 0
-559 0
-560 0
-561 0
-562 0
-563 0
-564 0
-565 0
-10 0
-566 0
557 567 568 569 570 571 572 573 574 21 575 0
-557 576 0
-576 577 0
-567 -576 0
-567 577 0
-577 578 0
-568 -577 0
-568 578 0
-578 579 0
-569 -578 0
-569 579 0
-579 580 0
-570 -579 0
-570 580 0
-580 581 0
-571 -580 0
-571 581 0
-581 582 0
-572 -581 0
-572 582 0
-582 583 0
-573 -582 0
-573 583 0
-583 584 0
-574 -583 0
-574 584 0
-584 585 0
-21 -584 0
-21 585 0
-575 -585 0
558 567 586 587 588 589 590 591 592 22 593 0
-558 594 0
-594 595 0
-567 -594 0
-567 595 0
-595 596 0
-586 -595 0
-586 596 0
-596 597 0
-587 -596 0
-587 597 0
-597 598 0
-588 -597 0
-588 598 0
-598 599 0
-589 -598 0
-589 599 0
-599 600 0
-590 -599 0
-590 600 0
-600 601 0
-591 -600 0
-591 601 0
-601 602 0
-592 -601 0
-592 602 0
-602 603 0
-22 -602 0
-22 603 0
-593 -603 0
559 568 586 604 605 606 607 608 609 64 610 0
-559 611 0
-611 612 0
-568 -611 0
-568 612 0
-612 613 0
-586 -612 0
-586 613 0
-613 614 0
-604 -613 0
-604 614 0
-614 615 0
-605 -614 0
-605 615 0
-615 616 0
-606 -615 0
-606 616 0
-616 617 0
-607 -616 0
-607 617 0
-617 618 0
-608 -617 0
-608 618 0
-618 619 0
-609 -618 0
-609 619 0
-619 620 0
-64 -619 0
-64 620 0
-610 -620 0
560 569 587 604 621 622 623 624 625 107 626 0
-560 627 0
-627 628 0
-569 -627 0
-569 628 0
-628 629 0
-587 -628 0
-587 629 0
-629 630 0
-604 -629 0
-604 630 0
-630 631 0
-621 -630 0
-621 631 0
-631 632 0
-622 -631 0
-622 632 0
-632 633 0
-623 -632 0
-623 633 0
-633 634 0
-624 -633 0
-624 634 0
-634 635 0
-625 -634 0
-625 635 0
-635 636 0
-107 -635 0
-107 636 0
-626 -636 0
561 570 588 605 621 637 638 639 640 128 641 0
-561 642 0
-642 643 0
-570 -642 0
-570 643 0
-643 644 0
-588 -643 0
-588 644 0
-644 645 0
-605 -644 0
-605 645 0
-645 646 0
-621 -645 0
-621 646 0
-646 647 0
-637 -646 0
-637 647 0
-647 648 0
-638 -647 0
-638 648 0
-648 649 0
-639 -648 0
-639 649 0
-649 650 0
-640 -649 0
-640 650 0
-650 651 0
-128 -650 0
-128 651 0
-641 -651 0
562 571 589 606 622 637 652 653 654 169 655 0
-562 656 0
-656 657 0
-571 -656 0
-571 657 0
-657 658 0
-589 -657 0
-589 658 0
-658 659 0
-606 -658 0
-606 659 0
-659 660 0
-622 -659 0
-622 660 0
-660 661 0
-637 -660 0
-637 661 0
-661 662 0
-652 -661 0
-652 662 0
-662 663 0
-653 -662 0
-653 663 0
-663 664 0
-654 -663 0
-654 664 0
-664 665 0
-169 -664 0
-169 665 0
-655 -665 0
563 572 590 607 623 638 652 666 667 183 668 0
-563 669 0
-669 670 0
-572 -669 0
-572 670 0
-670 671 0
-590 -670 0
-590 671 0
-671 672 0
-607 -671 0
-607 672 0
-672 673 0
-623 -672 0
-623 673 0
-673 674 0
-638 -673 0
-638 674 0
-674 675 0
-652 -674 0
-652 675 0
-675 676 0
-666 -675 0
-666 676 0
-676 677 0
-667 -676 0
-667 677 0
-677 678 0
-183 -677 0
-183 678 0
-668 -678 0
564 573 591 608 624 639 653 666 679 233 680 0
-564 681 0
-681 682 0
-573 -681 0
-573 682 0
-682 683 0
-591 -682 0
-591 683 0
-683 684 0
-608 -683 0
-608 684 0
-684 685 0
-624 -684 0
-624 685 0
-685 686 0
-639 -685 0
-639 686 0
-686 687 0
-653 -686 0
-653 687 0
-687 688 0
-666 -687 0
-666 688 0
-688 689 0
-679 -688 0
-679 689 0
-689 690 0
-233 -689 0
-233 690 0
-680 -690 0
-565 0
-574 0
-592 0
-609 0
-625 0
-640 0
-654 0
-667 0
-679 0
-320 0
-691 0
10 21 22 64 107 128 169 183 233 320 334 0
-10 692 0
-692 693 0
-21 -692 0
-21 693 0
-693 694 0
-22 -693 0
-22 694 0
-694 695 0
-64 -694 0
-64 695 0
-695 696 0
-107 -695 0
-107 696 0
-696 697 0
-128 -696 0
-128 697 0
-697 698 0
-169 -697 0
-169 698 0
-698 699 0
-183 -698 0
-183 699 0
-699 700 0
-233 -699 0
-233 700 0
-700 701 0
-320 -700 0
-320 701 0
-334 -701 0
566 575 593 610 626 641 655 668 680 691 334 0
-566 702 0
-702 703 0
-575 -702 0
-575 703 0
-703 704 0
-593 -703 0
-593 704 0
-704 705 0
-610 -704 0
-610 705 0
-705 706 0
-626 -705 0
-626 706 0
-706 707 0
-641 -706 0
-641 707 0
-707 708 0
-655 -707 0
-655 708 0
-708 709 0
-668 -708 0
-668 709 0
-709 710 0
-680 -709 0
-680 710 0
-710 711 0
-691 -710 0
-691 711 0
-334 -711 0
712 713 714 715 716 717 718 719 720 721 722 0
-712 723 0
-723 724 0
-713 -723 0
-713 724 0
-724 725 0
-714 -724 0
-714 725 0
-725 726 0
-715 -725 0
-715 726 0
-726 727 0
-716 -726 0
-716 727 0
-727 728 0
-717 -727 0
-717 728 0
-728 729 0
-718 -728 0
-718 729 0
-729 730 0
-719 -729 0
-719 730 0
-730 731 0
-720 -730 0
-720 731 0
-731 732 0
-721 -731 0
-721 732 0
-722 -732 0
712 557 733 734 735 736 737 738 739 740 741 0
-712 742 0
-742 743 0
-557 -742 0
-557 743 0
-743 744 0
-733 -743 0
-733 744 0
-744 745 0
-734 -744 0
-734 745 0
-745 746 0
-735 -745 0
-735 746 0
-746 747 0
-736 -746 0
-736 747 0
-747 748 0
-737 -747 0
-737 748 0
-748 749 0
-738 -748 0
-738 749 0
-749 750 0
-739 -749 0
-739 750 0
-750 751 0
-740 -750 0
-740 751 0
-741 -751 0
-713 0
-557 0
-752 0
-753 0
-754 0
-755 0
-756 0
-757 0
-758 0
-759 0
-760 0
714 733 752 761 762 763 764 765 766 767 768 0
-714 769 0
-769 770 0
-733 -769 0
-733 770 0
-770 771 0
-752 -770 0
-752 771 0
-771 772 0
-761 -771 0
-761 772 0
-772 773 0
-762 -772 0
-762 773 0
-773 774 0
-763 -773 0
-763 774 0
-774 775 0
-764 -774 0
-764 775 0
-775 776 0
-765 -775 0
-765 776 0
-776 777 0
-766 -776 0
-766 777 0
-777 778 0
-767 -777 0
-767 778 0
-768 -778 0
715 734 753 761 779 780 781 782 783 784 785 0
-715 786 0
-786 787 0
-734 -786 0
-734 787 0
-787 788 0
-753 -787 0
-753 788 0
-788 789 0
-761 -788 0
-761 789 0
-789 790 0
-779 -789 0
-779 790 0
-790 791 0
-780 -790 0
-780 791 0
-791 792 0
-781 -791 0
-781 792 0
-792 793 0
-782 -792 0
-782 793 0
-793 794 0
-783 -793 0
-783 794 0
-794 795 0
-784 -794 0
-784 795 0
-785 -795 0
716 735 754 762 779 796 797 798 799 800 801 0
-716 802 0
-802 803 0
-735 -802 0
-735 803 0
-803 804 0
-754 -803 0
-754 804 0
-804 805 0
-762 -804 0
-762 805 0
-805 806 0
-779 -805 0
-779 806 0
-806 807 0
-796 -806 0
-796 807 0
-807 808 0
-797 -807 0
-797 808 0
-808 809 0
-798 -808 0
-798 809 0
-809 810 0
-799 -809 0
-799 810 0
-810 811 0
-800 -810 0
-800 811 0
-801 -811 0
-717 0
-736 0
-755 0
-763 0
-780 0
-796 0
-812 0
-813 0
-814 0
-815 0
-816 0
718 737 756 764 781 797 812 817 818 819 820 0
-718 821 0
-821 822 0
-737 -821 0
-737 822 0
-822 823 0
-756 -822 0
-756 823 0
-823 824 0
-764 -823 0
-764 824 0
-824 825 0
-781 -824 0
-781 825 0
-825 826 0
-797 -825 0
-797 826 0
-826 827 0
-812 -826 0
-812 827 0
-827 828 0
-817 -827 0
-817 828 0
-828 829 0
-818 -828 0
-818 829 0
-829 830 0
-819 -829 0
-819 830 0
-820 -830 0
719 738 757 765 782 798 813 817 831 832 833 0
-719 834 0
-834 835 0
-738 -834 0
-738 835 0
-835 836 0
-757 -835 0
-757 836 0
-836 837 0
-765 -836 0
-765 837 0
-837 838 0
-782 -837 0
-782 838 0
-838 839 0
-798 -838 0
-798 839 0
-839 840 0
-813 -839 0
-813 840 0
-840 841 0
-817 -840 0
-817 841 0
-841 842 0
-831 -841 0
-831 842 0
-842 843 0
-832 -842 0
-832 843 0
-833 -843 0
720 739 758 766 783 799 814 818 831 844 845 0
-720 846 0
-846 847 0
-739 -846 0
-739 847 0
-847 848 0
-758 -847 0
-758 848 0
-848 849 0
-766 -848 0
-766 849 0
-849 850 0
-783 -849 0
-783 850 0
-850 851 0
-799 -850 0
-799 851 0
-851 852 0
-814 -851 0
-814 852 0
-852 853 0
-818 -852 0
-818 853 0
-853 854 0
-831 -853 0
-831 854 0
-854 855 0
-844 -854 0
-844 855 0
-845 -855 0
721 740 759 767 784 800 815 819 832 844 856 0
-721 857 0
-857 858 0
-740 -857 0
-740 858 0
-858 859 0
-759 -858 0
-759 859 0
-859 860 0
-767 -859 0
-767 860 0
-860 861 0
-784 -860 0
-784 861 0
-861 862 0
-800 -861 0
-800 862 0
-862 863 0
-815 -862 0
-815 863 0
-863 864 0
-819 -863 0
-819 864 0
-864 865 0
-832 -864 0
-832 865 0
-865 866 0
-844 -865 0
-844 866 0
-856 -866 0
4 867 0
-867 868 0
10 -867 869 0
-869 870 0
21 -869 871 0
-871 872 0
67 -871 873 0
-873 874 0
69 -873 875 0
-875 876 0
109 -875 877 0
-877 878 0
127 -877 879 0
-879 880 0
168 -879 881 0
-881 882 0
184 -881 883 0
-883 884 0
187 -883 885 0
-885 886 0
275 -885 0
10 868 0
21 -868 870 0
67 -870 872 0
69 -872 874 0
109 -874 876 0
127 -876 878 0
168 -878 880 0
184 -880 882 0
187 -882 884 0
275 -884 886 0
335 -886 0
-4 887 0
-887 888 0
-10 -887 889 0
-889 890 0
-21 -889 0
-10 888 0
-888 891 0
-21 -888 890 0
-890 892 0
-67 -890 0
-21 891 0
-891 893 0
-67 -891 892 0
-892 894 0
-69 -892 0
-67 893 0
-893 895 0
-69 -893 894 0
-894 896 0
-109 -894 0
-69 895 0
-895 897 0
-109 -895 896 0
-896 898 0
-127 -896 0
-109 897 0
-897 899 0
-127 -897 898 0
-898 900 0
-168 -898 0
-127 899 0
-899 901 0
-168 -899 900 0
-900 902 0
-184 -900 0
-168 901 0
-901 903 0
-184 -901 902 0
-902 904 0
-187 -902 0
-184 903 0
-903 905 0
-187 -903 904 0
-904 906 0
-275 -904 0
-187 905 0
-275 -905 906 0
-335 -906 0
722 741 760 768 785 801 816 820 833 845 856 0
-722 907 0
-907 908 0
-741 -907 0
-741 908 0
-908 909 0
-760 -908 0
-760 909 0
-909 910 0
-768 -909 0
-768 910 0
-910 911 0
-785 -910 0
-785 911 0
-911 912 0
-801 -911 0
-801 912 0
-912 913 0
-816 -912 0
-816 913 0
-913 914 0
-820 -913 0
-820 914 0
-914 915 0
-833 -914 0
-833 915 0
-915 916 0
-845 -915 0
-845 916 0
-856 -916 0
917 918 919 920 921 922 923 924 925 402 926 0
-917 927 0
-927 928 0
-918 -927 0
-918 928 0
-928 929 0
-919 -928 0
-919 929 0
-929 930 0
-920 -929 0
-920 930 0
-930 931 0
-921 -930 0
-921 931 0
-931 932 0
-922 -931 0
-922 932 0
-932 933 0
-923 -932 0
-923 933 0
-933 934 0
-924 -933 0
-924 934 0
-934 935 0
-925 -934 0
-925 935 0
-935 936 0
-402 -935 0
-402 936 0
-926 -936 0
917 937 938 939 940 941 942 943 944 945 946 0
-917 947 0
-947 948 0
-937 -947 0
-937 948 0
-948 949 0
-938 -948 0
-938 949 0
-949 950 0
-939 -949 0
-939 950 0
-950 951 0
-940 -950 0
-940 951 0
-951 952 0
-941 -951 0
-941 952 0
-952 953 0
-942 -952 0
-942 953 0
-953 954 0
-943 -953 0
-943 954 0
-954 955 0
-944 -954 0
-944 955 0
-955 956 0
-945 -955 0
-945 956 0
-946 -956 0
918 937 957 958 959 960 961 962 963 964 965 0
-918 966 0
-966 967 0
-937 -966 0
-937 967 0
-967 968 0
-957 -967 0
-957 968 0
-968 969 0
-958 -968 0
-958 969 0
-969 970 0
-959 -969 0
-959 970 0
-970 971 0
-960 -970 0
-960 971 0
-971 972 0
-961 -971 0
-961 972 0
-972 973 0
-962 -972 0
-962 973 0
-973 974 0
-963 -973 0
-963 974 0
-974 975 0
-964 -974 0
-964 975 0
-965 -975 0
919 938 957 976 977 978 979 980 981 982 983 0
-919 984 0
-984 985 0
-938 -984 0
-938 985 0
-985 986 0
-957 -985 0
-957 986 0
-986 987 0
-976 -986 0
-976 987 0
-987 988 0
-977 -987 0
-977 988 0
-988 989 0
-978 -988 0
-978 989 0
-989 990 0
-979 -989 0
-979 990 0
-990 991 0
-980 -990 0
-980 991 0
-991 992 0
-981 -991 0
-981 992 0
-992 993 0
-982 -992 0
-982 993 0
-983 -993 0
-920 0
-939 0
-958 0
-976 0
-604 0
-994 0
-995 0
-996 0
-997 0
-998 0
-999 0
-921 0
-940 0
-959 0
-977 0
-604 0
-1000 0
-1001 0
-1002 0
-1003 0
-1004 0
-1005 0
922 941 960 978 994 1000 1006 1007 1008 1009 1010 0
-922 1011 0
-1011 1012 0
-941 -1011 0
-941 1012 0
-1012 1013 0
-960 -1012 0
-960 1013 0
-1013 1014 0
-978 -1013 0
-978 1014 0
-1014 1015 0
-994 -1014 0
-994 1015 0
-1015 1016 0
-1000 -1015 0
-1000 1016 0
-1016 1017 0
-1006 -1016 0
-1006 1017 0
-1017 1018 0
-1007 -1017 0
-1007 1018 0
-1018 1019 0
-1008 -1018 0
-1008 1019 0
-1019 1020 0
-1009 -1019 0
-1009 1020 0
-1010 -1020 0
923 942 961 979 995 1001 1006 1021 1022 1023 1024 0
-923 1025 0
-1025 1026 0
-942 -1025 0
-942 1026 0
-1026 1027 0
-961 -1026 0
-961 1027 0
-1027 1028 0
-979 -1027 0
-979 1028 0
-1028 1029 0
-995 -1028 0
-995 1029 0
-1029 1030 0
-1001 -1029 0
-1001 1030 0
-1030 1031 0
-1006 -1030 0
-1006 1031 0
-1031 1032 0
-1021 -1031 0
-1021 1032 0
-1032 1033 0
-1022 -1032 0
-1022 1033 0
-1033 1034 0
-1023 -1033 0
-1023 1034 0
-1024 -1034 0
924 943 962 980 996 1002 1007 1021 1035 1036 1037 0
-924 1038 0
-1038 1039 0
-943 -1038 0
-943 1039 0
-1039 1040 0
-962 -1039 0
-962 1040 0
-1040 1041 0
-980 -1040 0
-980 1041 0
-1041 1042 0
-996 -1041 0
-996 1042 0
-1042 1043 0
-1002 -1042 0
-1002 1043 0
-1043 1044 0
-1007 -1043 0
-1007 1044 0
-1044 1045 0
-1021 -1044 0
-1021 1045 0
-1045 1046 0
-1035 -1045 0
-1035 1046 0
-1046 1047 0
-1036 -1046 0
-1036 1047 0
-1037 -1047 0
925 944 963 981 997 1003 1008 1022 1035 1048 1049 0
-925 1050 0
-1050 1051 0
-944 -1050 0
-944 1051 0
-1051 1052 0
-963 -1051 0
-963 1052 0
-1052 1053 0
-981 -1052 0
-981 1053 0
-1053 1054 0
-997 -1053 0
-997 1054 0
-1054 1055 0
-1003 -1054 0
-1003 1055 0
-1055 1056 0
-1008 -1055 0
-1008 1056 0
-1056 1057 0
-1022 -1056 0
-1022 1057 0
-1057 1058 0
-1035 -1057 0
-1035 1058 0
-1058 1059 0
-1048 -1058 0
-1048 1059 0
-1049 -1059 0
402 945 964 982 998 1004 1009 1023 1036 1048 1060 0
-402 1061 0
-1061 1062 0
-945 -1061 0
-945 1062 0
-1062 1063 0
-964 -1062 0
-964 1063 0
-1063 1064 0
-982 -1063 0
-982 1064 0
-1064 1065 0
-998 -1064 0
-998 1065 0
-1065 1066 0
-1004 -1065 0
-1004 1066 0
-1066 1067 0
-1009 -1066 0
-1009 1067 0
-1067 1068 0
-1023 -1067 0
-1023 1068 0
-1068 1069 0
-1036 -1068 0
-1036 1069 0
-1069 1070 0
-1048 -1069 0
-1048 1070 0
-1060 -1070 0
6 1071 0
-1071 1072 0
7 -1071 1073 0
-1073 1074 0
23 -1073 1075 0
-1075 1076 0
28 -1075 1077 0
-1077 1078 0
64 -1077 1079 0
-1079 1080 0
107 -1079 1081 0
-1081 1082 0
110 -1081 1083 0
-1083 1084 0
166 -1083 1085 0
-1085 1086 0
171 -1085 1087 0
-1087 1088 0
230 -1087 1089 0
-1089 1090 0
321 -1089 0
7 1072 0
23 -1072 1074 0
28 -1074 1076 0
64 -1076 1078 0
107 -1078 1080 0
110 -1080 1082 0
166 -1082 1084 0
171 -1084 1086 0
230 -1086 1088 0
321 -1088 1090 0
335 -1090 0
-6 1091 0
-1091 1092 0
-7 -1091 1093 0
-1093 1094 0
-23 -1093 0
-7 1092 0
-1092 1095 0
-23 -1092 1094 0
-1094 1096 0
-28 -1094 0
-23 1095 0
-1095 1097 0
-28 -1095 1096 0
-1096 1098 0
-64 -1096 0
-28 1097 0
-1097 1099 0
-64 -1097 1098 0
-1098 1100 0
-107 -1098 0
-64 1099 0
-1099 1101 0
-107 -1099 1100 0
-1100 1102 0
-110 -1100 0
-107 1101 0
-1101 1103 0
-110 -1101 1102 0
-1102 1104 0
-166 -1102 0
-110 1103 0
-1103 1105 0
-166 -1103 1104 0
-1104 1106 0
-171 -1104 0
-166 1105 0
-1105 1107 0
-171 -1105 1106 0
-1106 1108 0
-230 -1106 0
-171 1107 0
-1107 1109 0
-230 -1107 1108 0
-1108 1110 0
-321 -1108 0
-230 1109 0
-321 -1109 1110 0
-335 -1110 0
926 946 965 983 999 1005 1010 1024 1037 1049 1060 0
-926 1111 0
-1111 1112 0
-946 -1111 0
-946 1112 0
-1112 1113 0
-965 -1112 0
-965 1113 0
-1113 1114 0
-983 -1113 0
-983 1114 0
-1114 1115 0
-999 -1114 0
-999 1115 0
-1115 1116 0
-1005 -1115 0
-1005 1116 0
-1116 1117 0
-1010 -1116 0
-1010 1117 0
-1117 1118 0
-1024 -1117 0
-1024 1118 0
-1118 1119 0
-1037 -1118 0
-1037 1119 0
-1119 1120 0
-1049 -1119 0
-1049 1120 0
-1060 -1120 0
1121 1122 1123 1124 1125 1126 1127 1128 1129 1130 0
-1121 1131 0
-1131 1132 0
-1122 -1131 0
-1122 1132 0
-1132 1133 0
-1123 -1132 0
-1123 1133 0
-1133 1134 0
-1124 -1133 0
-1124 1134 0
-1134 1135 0
-1125 -1134 0
-1125 1135 0
-1135 1136 0
-1126 -1135 0
-1126 1136 0
-1136 1137 0
-1127 -1136 0
-1127 1137 0
-1137 1138 0
-1128 -1137 0
-1128 1138 0
-1138 1139 0
-1129 -1138 0
-1129 1139 0
-1130 -1139 0
1121 1140 1141 1142 1143 1144 1145 1146 1147 1148 0
-1121 1149 0
-1149 1150 0
-1140 -1149 0
-1140 1150 0
-1150 1151 0
-1141 -1150 0
-1141 1151 0
-1151 1152 0
-1142 -1151 0
-1142 1152 0
-1152 1153 0
-1143 -1152 0
-1143 1153 0
-1153 1154 0
-1144 -1153 0
-1144 1154 0
-1154 1155 0
-1145 -1154 0
-1145 1155 0
-1155 1156 0
-1146 -1155 0
-1146 1156 0
-1156 1157 0
-1147 -1156 0
-1147 1157 0
-1148 -1157 0
-1122 0
-1140 0
-1158 0
-1159 0
-1160 0
-1161 0
-1162 0
-1163 0
-1164 0
-1165 0
1123 1141 1158 1166 1167 1168 1169 1170 1171 640 0
-1123 1172 0
-1172 1173 0
-1141 -1172 0
-1141 1173 0
-1173 1174 0
-1158 -1173 0
-1158 1174 0
-1174 1175 0
-1166 -1174 0
-1166 1175 0
-1175 1176 0
-1167 -1175 0
-1167 1176 0
-1176 1177 0
-1168 -1176 0
-1168 1177 0
-1177 1178 0
-1169 -1177 0
-1169 1178 0
-1178 1179 0
-1170 -1178 0
-1170 1179 0
-1179 1180 0
-1171 -1179 0
-1171 1180 0
-640 -1180 0
1124 1142 1159 1166 1181 1182 1183 1184 1185 1186 0
-1124 1187 0
-1187 1188 0
-1142 -1187 0
-1142 1188 0
-1188 1189 0
-1159 -1188 0
-1159 1189 0
-1189 1190 0
-1166 -1189 0
-1166 1190 0
-1190 1191 0
-1181 -1190 0
-1181 1191 0
-1191 1192 0
-1182 -1191 0
-1182 1192 0
-1192 1193 0
-1183 -1192 0
-1183 1193 0
-1193 1194 0
-1184 -1193 0
-1184 1194 0
-1194 1195 0
-1185 -1194 0
-1185 1195 0
-1186 -1195 0
-1125 0
-1143 0
-1160 0
-1167 0
-1181 0
-1196 0
-1197 0
-1022 0
-1198 0
-1199 0
1126 1144 1161 1168 1182 1196 831 1200 1201 1202 0
-1126 1203 0
-1203 1204 0
-1144 -1203 0
-1144 1204 0
-1204 1205 0
-1161 -1204 0
-1161 1205 0
-1205 1206 0
-1168 -1205 0
-1168 1206 0
-1206 1207 0
-1182 -1206 0
-1182 1207 0
-1207 1208 0
-1196 -1207 0
-1196 1208 0
-1208 1209 0
-831 -1208 0
-831 1209 0
-1209 1210 0
-1200 -1209 0
-1200 1210 0
-1210 1211 0
-1201 -1210 0
-1201 1211 0
-1202 -1211 0
1127 1145 1162 1169 1183 1197 831 1212 1213 1214 0
-1127 1215 0
-1215 1216 0
-1145 -1215 0
-1145 1216 0
-1216 1217 0
-1162 -1216 0
-1162 1217 0
-1217 1218 0
-1169 -1217 0
-1169 1218 0
-1218 1219 0
-1183 -1218 0
-1183 1219 0
-1219 1220 0
-1197 -1219 0
-1197 1220 0
-1220 1221 0
-831 -1220 0
-831 1221 0
-1221 1222 0
-1212 -1221 0
-1212 1222 0
-1222 1223 0
-1213 -1222 0
-1213 1223 0
-1214 -1223 0
1128 1146 1163 1170 1184 1022 1200 1212 1224 1225 0
-1128 1226 0
-1226 1227 0
-1146 -1226 0
-1146 1227 0
-1227 1228 0
-1163 -1227 0
-1163 1228 0
-1228 1229 0
-1170 -1228 0
-1170 1229 0
-1229 1230 0
-1184 -1229 0
-1184 1230 0
-1230 1231 0
-1022 -1230 0
-1022 1231 0
-1231 1232 0
-1200 -1231 0
-1200 1232 0
-1232 1233 0
-1212 -1232 0
-1212 1233 0
-1233 1234 0
-1224 -1233 0
-1224 1234 0
-1225 -1234 0
1129 1147 1164 1171 1185 1198 1201 1213 1224 1235 0
-1129 1236 0
-1236 1237 0
-1147 -1236 0
-1147 1237 0
-1237 1238 0
-1164 -1237 0
-1164 1238 0
-1238 1239 0
-1171 -1238 0
-1171 1239 0
-1239 1240 0
-1185 -1239 0
-1185 1240 0
-1240 1241 0
-1198 -1240 0
-1198 1241 0
-1241 1242 0
-1201 -1241 0
-1201 1242 0
-1242 1243 0
-1213 -1242 0
-1213 1243 0
-1243 1244 0
-1224 -1243 0
-1224 1244 0
-1235 -1244 0
-1130 0
-1148 0
-1165 0
-640 0
-1186 0
-1199 0
-1202 0
-1214 0
-1225 0
-1235 0
1 1245 0
-1245 1246 0
29 -1245 1247 0
-1247 1248 0
62 -1247 1249 0
-1249 1250 0
128 -1249 1251 0
-1251 1252 0
132 -1251 1253 0
-1253 1254 0
166 -1253 1255 0
-1255 1256 0
184 -1255 1257 0
-1257 1258 0
187 -1257 1259 0
-1259 1260 0
230 -1259 1261 0
-1261 1262 0
276 -1261 0
29 1246 0
62 -1246 1248 0
128 -1248 1250 0
132 -1250 1252 0
166 -1252 1254 0
184 -1254 1256 0
187 -1256 1258 0
230 -1258 1260 0
276 -1260 1262 0
320 -1262 0
-1 1263 0
-1263 1264 0
-29 -1263 1265 0
-1265 1266 0
-62 -1265 0
-29 1264 0
-1264 1267 0
-62 -1264 1266 0
-1266 1268 0
-128 -1266 0
-62 1267 0
-1267 1269 0
-128 -1267 1268 0
-1268 1270 0
-132 -1268 0
-128 1269 0
-1269 1271 0
-132 -1269 1270 0
-1270 1272 0
-166 -1270 0
-132 1271 0
-1271 1273 0
-166 -1271 1272 0
-1272 1274 0
-184 -1272 0
-166 1273 0
-1273 1275 0
-184 -1273 1274 0
-1274 1276 0
-187 -1274 0
-184 1275 0
-1275 1277 0
-187 -1275 1276 0
-1276 1278 0
-230 -1276 0
-187 1277 0
-1277 1279 0
-230 -1277 1278 0
-1278 1280 0
-276 -1278 0
-230 1279 0
-276 -1279 1280 0
-320 -1280 0
1281 1282 1283 1284 1285 1286 1287 1288 1289 1290 3 0
-1281 1291 0
-1291 1292 0
-1282 -1291 0
-1282 1292 0
-1292 1293 0
-1283 -1292 0
-1283 1293 0
-1293 1294 0
-1284 -1293 0
-1284 1294 0
-1294 1295 0
-1285 -1294 0
-1285 1295 0
-1295 1296 0
-1286 -1295 0
-1286 1296 0
-1296 1297 0
-1287 -1296 0
-1287 1297 0
-1297 1298 0
-1288 -1297 0
-1288 1298 0
-1298 1299 0
-1289 -1298 0
-1289 1299 0
-1299 1300 0
-1290 -1299 0
-1290 1300 0
-3 -1300 0
1281 1301 1302 1303 1304 1305 1306 1307 721 1308 4 0
-1281 1309 0
-1309 1310 0
-1301 -1309 0
-1301 1310 0
-1310 1311 0
-1302 -1310 0
-1302 1311 0
-1311 1312 0
-1303 -1311 0
-1303 1312 0
-1312 1313 0
-1304 -1312 0
-1304 1313 0
-1313 1314 0
-1305 -1313 0
-1305 1314 0
-1314 1315 0
-1306 -1314 0
-1306 1315 0
-1315 1316 0
-1307 -1315 0
-1307 1316 0
-1316 1317 0
-721 -1316 0
-721 1317 0
-1317 1318 0
-1308 -1317 0
-1308 1318 0
-4 -1318 0
1282 1301 1319 1320 1321 407 1322 1323 1324 1325 24 0
-1282 1326 0
-1326 1327 0
-1301 -1326 0
-1301 1327 0
-1327 1328 0
-1319 -1327 0
-1319 1328 0
-1328 1329 0
-1320 -1328 0
-1320 1329 0
-1329 1330 0
-1321 -1329 0
-1321 1330 0
-1330 1331 0
-407 -1330 0
-407 1331 0
-1331 1332 0
-1322 -1331 0
-1322 1332 0
-1332 1333 0
-1323 -1332 0
-1323 1333 0
-1333 1334 0
-1324 -1333 0
-1324 1334 0
-1334 1335 0
-1325 -1334 0
-1325 1335 0
-24 -1335 0
1283 1302 1319 1336 1337 1338 980 1339 1340 1341 28 0
-1283 1342 0
-1342 1343 0
-1302 -1342 0
-1302 1343 0
-1343 1344 0
-1319 -1343 0
-1319 1344 0
-1344 1345 0
-1336 -1344 0
-1336 1345 0
-1345 1346 0
-1337 -1345 0
-1337 1346 0
-1346 1347 0
-1338 -1346 0
-1338 1347 0
-1347 1348 0
-980 -1347 0
-980 1348 0
-1348 1349 0
-1339 -1348 0
-1339 1349 0
-1349 1350 0
-1340 -1349 0
-1340 1350 0
-1350 1351 0
-1341 -1350 0
-1341 1351 0
-28 -1351 0
1284 1303 1320 1336 1352 1353 1354 1355 1356 1164 62 0
-1284 1357 0
-1357 1358 0
-1303 -1357 0
-1303 1358 0
-1358 1359 0
-1320 -1358 0
-1320 1359 0
-1359 1360 0
-1336 -1359 0
-1336 1360 0
-1360 1361 0
-1352 -1360 0
-1352 1361 0
-1361 1362 0
-1353 -1361 0
-1353 1362 0
-1362 1363 0
-1354 -1362 0
-1354 1363 0
-1363 1364 0
-1355 -1363 0
-1355 1364 0
-1364 1365 0
-1356 -1364 0
-1356 1365 0
-1365 1366 0
-1164 -1365 0
-1164 1366 0
-62 -1366 0
1285 1304 1321 1337 1352 1367 1368 1369 1370 1371 112 0
-1285 1372 0
-1372 1373 0
-1304 -1372 0
-1304 1373 0
-1373 1374 0
-1321 -1373 0
-1321 1374 0
-1374 1375 0
-1337 -1374 0
-1337 1375 0
-1375 1376 0
-1352 -1375 0
-1352 1376 0
-1376 1377 0
-1367 -1376 0
-1367 1377 0
-1377 1378 0
-1368 -1377 0
-1368 1378 0
-1378 1379 0
-1369 -1378 0
-1369 1379 0
-1379 1380 0
-1370 -1379 0
-1370 1380 0
-1380 1381 0
-1371 -1380 0
-1371 1381 0
-112 -1381 0
1286 1305 407 1338 1353 1367 1382 1383 1384 1385 126 0
-1286 1386 0
-1386 1387 0
-1305 -1386 0
-1305 1387 0
-1387 1388 0
-407 -1387 0
-407 1388 0
-1388 1389 0
-1338 -1388 0
-1338 1389 0
-1389 1390 0
-1353 -1389 0
-1353 1390 0
-1390 1391 0
-1367 -1390 0
-1367 1391 0
-1391 1392 0
-1382 -1391 0
-1382 1392 0
-1392 1393 0
-1383 -1392 0
-1383 1393 0
-1393 1394 0
-1384 -1393 0
-1384 1394 0
-1394 1395 0
-1385 -1394 0
-1385 1395 0
-126 -1395 0
-1287 0
-1306 0
-1322 0
-980 0
-1354 0
-1368 0
-1382 0
-1396 0
-1397 0
-1398 0
-171 0
-1288 0
-1307 0
-1323 0
-1339 0
-1355 0
-1369 0
-1383 0
-1396 0
-1399 0
-1400 0
-229 0
1289 721 1324 1340 1356 1370 1384 1397 1399 1401 275 0
-1289 1402 0
-1402 1403 0
-721 -1402 0
-721 1403 0
-1403 1404 0
-1324 -1403 0
-1324 1404 0
-1404 1405 0
-1340 -1404 0
-1340 1405 0
-1405 1406 0
-1356 -1405 0
-1356 1406 0
-1406 1407 0
-1370 -1406 0
-1370 1407 0
-1407 1408 0
-1384 -1407 0
-1384 1408 0
-1408 1409 0
-1397 -1408 0
-1397 1409 0
-1409 1410 0
-1399 -1409 0
-1399 1410 0
-1410 1411 0
-1401 -1410 0
-1401 1411 0
-275 -1411 0
1290 1308 1325 1341 1164 1371 1385 1398 1400 1401 276 0
-1290 1412 0
-1412 1413 0
-1308 -1412 0
-1308 1413 0
-1413 1414 0
-1325 -1413 0
-1325 1414 0
-1414 1415 0
-1341 -1414 0
-1341 1415 0
-1415 1416 0
-1164 -1415 0
-1164 1416 0
-1416 1417 0
-1371 -1416 0
-1371 1417 0
-1417 1418 0
-1385 -1417 0
-1385 1418 0
-1418 1419 0
-1398 -1418 0
-1398 1419 0
-1419 1420 0
-1400 -1419 0
-1400 1420 0
-1420 1421 0
-1401 -1420 0
-1401 1421 0
-276 -1421 0
3 4 24 28 62 112 126 171 229 275 276 0
-3 1422 0
-1422 1423 0
-4 -1422 0
-4 1423 0
-1423 1424 0
-24 -1423 0
-24 1424 0
-1424 1425 0
-28 -1424 0
-28 1425 0
-1425 1426 0
-62 -1425 0
-62 1426 0
-1426 1427 0
-112 -1426 0
-112 1427 0
-1427 1428 0
-126 -1427 0
-126 1428 0
-1428 1429 0
-171 -1428 0
-171 1429 0
-1429 1430 0
-229 -1429 0
-229 1430 0
-1430 1431 0
-275 -1430 0
-275 1431 0
-276 -1431 0
1432 1433 1434 1435 1436 1437 1438 1439 1440 1441 1442 0
-1432 1443 0
-1443 1444 0
-1433 -1443 0
-1433 1444 0
-1444 1445 0
-1434 -1444 0
-1434 1445 0
-1445 1446 0
-1435 -1445 0
-1435 1446 0
-1446 1447 0
-1436 -1446 0
-1436 1447 0
-1447 1448 0
-1437 -1447 0
-1437 1448 0
-1448 1449 0
-1438 -1448 0
-1438 1449 0
-1449 1450 0
-1439 -1449 0
-1439 1450 0
-1450 1451 0
-1440 -1450 0
-1440 1451 0
-1451 1452 0
-1441 -1451 0
-1441 1452 0
-1442 -1452 0
1432 1453 1454 1455 1456 1457 1458 1459 1460 1461 1462 0
-1432 1463 0
-1463 1464 0
-1453 -1463 0
-1453 1464 0
-1464 1465 0
-1454 -1464 0
-1454 1465 0
-1465 1466 0
-1455 -1465 0
-1455 1466 0
-1466 1467 0
-1456 -1466 0
-1456 1467 0
-1467 1468 0
-1457 -1467 0
-1457 1468 0
-1468 1469 0
-1458 -1468 0
-1458 1469 0
-1469 1470 0
-1459 -1469 0
-1459 1470 0
-1470 1471 0
-1460 -1470 0
-1460 1471 0
-1471 1472 0
-1461 -1471 0
-1461 1472 0
-1462 -1472 0
1433 1453 1473 1474 1475 1476 1477 756 1478 1479 574 0
-1433 1480 0
-1480 1481 0
-1453 -1480 0
-1453 1481 0
-1481 1482 0
-1473 -1481 0
-1473 1482 0
-1482 1483 0
-1474 -1482 0
-1474 1483 0
-1483 1484 0
-1475 -1483 0
-1475 1484 0
-1484 1485 0
-1476 -1484 0
-1476 1485 0
-1485 1486 0
-1477 -1485 0
-1477 1486 0
-1486 1487 0
-756 -1486 0
-756 1487 0
-1487 1488 0
-1478 -1487 0
-1478 1488 0
-1488 1489 0
-1479 -1488 0
-1479 1489 0
-574 -1489 0
1434 1454 1473 1490 1491 1492 1493 1494 1495 1496 1497 0
-1434 1498 0
-1498 1499 0
-1454 -1498 0
-1454 1499 0
-1499 1500 0
-1473 -1499 0
-1473 1500 0
-1500 1501 0
-1490 -1500 0
-1490 1501 0
-1501 1502 0
-1491 -1501 0
-1491 1502 0
-1502 1503 0
-1492 -1502 0
-1492 1503 0
-1503 1504 0
-1493 -1503 0
-1493 1504 0
-1504 1505 0
-1494 -1504 0
-1494 1505 0
-1505 1506 0
-1495 -1505 0
-1495 1506 0
-1506 1507 0
-1496 -1506 0
-1496 1507 0
-1497 -1507 0
1435 1455 1474 1490 1508 1509 1510 1511 1512 1513 1514 0
-1435 1515 0
-1515 1516 0
-1455 -1515 0
-1455 1516 0
-1516 1517 0
-1474 -1516 0
-1474 1517 0
-1517 1518 0
-1490 -1517 0
-1490 1518 0
-1518 1519 0
-1508 -1518 0
-1508 1519 0
-1519 1520 0
-1509 -1519 0
-1509 1520 0
-1520 1521 0
-1510 -1520 0
-1510 1521 0
-1521 1522 0
-1511 -1521 0
-1511 1522 0
-1522 1523 0
-1512 -1522 0
-1512 1523 0
-1523 1524 0
-1513 -1523 0
-1513 1524 0
-1514 -1524 0
1436 1456 1475 1491 1508 1525 1526 1527 1528 1529 1530 0
-1436 1531 0
-1531 1532 0
-1456 -1531 0
-1456 1532 0
-1532 1533 0
-1475 -1532 0
-1475 1533 0
-1533 1534 0
-1491 -1533 0
-1491 1534 0
-1534 1535 0
-1508 -1534 0
-1508 1535 0
-1535 1536 0
-1525 -1535 0
-1525 1536 0
-1536 1537 0
-1526 -1536 0
-1526 1537 0
-1537 1538 0
-1527 -1537 0
-1527 1538 0
-1538 1539 0
-1528 -1538 0
-1528 1539 0
-1539 1540 0
-1529 -1539 0
-1529 1540 0
-1530 -1540 0
1437 1457 1476 1492 1509 1525 1541 1542 1008 1543 1544 0
-1437 1545 0
-1545 1546 0
-1457 -1545 0
-1457 1546 0
-1546 1547 0
-1476 -1546 0
-1476 1547 0
-1547 1548 0
-1492 -1547 0
-1492 1548 0
-1548 1549 0
-1509 -1548 0
-1509 1549 0
-1549 1550 0
-1525 -1549 0
-1525 1550 0
-1550 1551 0
-1541 -1550 0
-1541 1551 0
-1551 1552 0
-1542 -1551 0
-1542 1552 0
-1552 1553 0
-1008 -1552 0
-1008 1553 0
-1553 1554 0
-1543 -1553 0
-1543 1554 0
-1544 -1554 0
-1438 0
-1458 0
-1477 0
-1493 0
-1510 0
-1526 0
-1541 0
-1555 0
-1556 0
-1557 0
-476 0
1439 1459 756 1494 1511 1527 1542 1555 1558 1559 1560 0
-1439 1561 0
-1561 1562 0
-1459 -1561 0
-1459 1562 0
-1562 1563 0
-756 -1562 0
-756 1563 0
-1563 1564 0
-1494 -1563 0
-1494 1564 0
-1564 1565 0
-1511 -1564 0
-1511 1565 0
-1565 1566 0
-1527 -1565 0
-1527 1566 0
-1566 1567 0
-1542 -1566 0
-1542 1567 0
-1567 1568 0
-1555 -1567 0
-1555 1568 0
-1568 1569 0
-1558 -1568 0
-1558 1569 0
-1569 1570 0
-1559 -1569 0
-1559 1570 0
-1560 -1570 0
1440 1460 1478 1495 1512 1528 1008 1556 1558 1571 1225 0
-1440 1572 0
-1572 1573 0
-1460 -1572 0
-1460 1573 0
-1573 1574 0
-1478 -1573 0
-1478 1574 0
-1574 1575 0
-1495 -1574 0
-1495 1575 0
-1575 1576 0
-1512 -1575 0
-1512 1576 0
-1576 1577 0
-1528 -1576 0
-1528 1577 0
-1577 1578 0
-1008 -1577 0
-1008 1578 0
-1578 1579 0
-1556 -1578 0
-1556 1579 0
-1579 1580 0
-1558 -1579 0
-1558 1580 0
-1580 1581 0
-1571 -1580 0
-1571 1581 0
-1225 -1581 0
-1441 0
-1461 0
-1479 0
-1496 0
-1513 0
-1529 0
-1543 0
-1557 0
-1559 0
-1571 0
-1582 0
1442 1462 574 1497 1514 1530 1544 476 1560 1225 1582 0
-1442 1583 0
-1583 1584 0
-1462 -1583 0
-1462 1584 0
-1584 1585 0
-574 -1584 0
-574 1585 0
-1585 1586 0
-1497 -1585 0
-1497 1586 0
-1586 1587 0
-1514 -1586 0
-1514 1587 0
-1587 1588 0
-1530 -1587 0
-1530 1588 0
-1588 1589 0
-1544 -1588 0
-1544 1589 0
-1589 1590 0
-476 -1589 0
-476 1590 0
-1590 1591 0
-1560 -1590 0
-1560 1591 0
-1591 1592 0
-1225 -1591 0
-1225 1592 0
-1582 -1592 0
3 5 21 26 65 68 110 131 168 230 278 320 0
-3 1593 0
-1593 1594 0
-5 -1593 0
-5 1594 0
-1594 1595 0
-21 -1594 0
-21 1595 0
-1595 1596 0
-26 -1595 0
-26 1596 0
-1596 1597 0
-65 -1596 0
-65 1597 0
-1597 1598 0
-68 -1597 0
-68 1598 0
-1598 1599 0
-110 -1598 0
-110 1599 0
-1599 1600 0
-131 -1599 0
-131 1600 0
-1600 1601 0
-168 -1600 0
-168 1601 0
-1601 1602 0
-230 -1601 0
-230 1602 0
-1602 1603 0
-278 -1602 0
-278 1603 0
-320 -1603 0
1 2 3 4 5 6 -7 8 9 10 20 21 22 23 24 25 26 -27 28 -29 62 63 -64 65 -66 67 68 69 70 107 108 -109 110 111 112 113 114 125 126 -127 128 129 130 -131 132 -165 166 167 168 169 170 171 182 183 184 185 186 187 228 229 230 231 232 233 274 275 -276 277 278 319 320 321 322 323 334 335 0
1 -2 3 4 5 6 7 8 9 10 20 21 22 -23 24 25 26 27 28 -29 62 63 -64 65 66 -67 68 69 70 107 108 109 110 111 112 113 114 125 126 -127 128 129 130 -131 132 165 166 167 168 169 -170 171 182 183 184 185 186 187 -228 229 230 231 232 233 274 275 -276 277 278 319 320 321 322 323 334 335 0
1 2 3 4 5 6 7 -8 9 10 20 21 22 -23 24 25 26 27 28 -29 62 63 -64 65 66 -67 68 69 70 107 108 -109 110 111 112 113 114 -125 126 127 128 129 130 -131 132 165 166 167 168 169 170 171 182 183 184 185 186 187 -228 229 230 231 232 233 274 275 -276 277 278 319 320 321 322 323 334 335 0
1 2 3 4 5 6 7 -8 9 10 20 21 22 -23 24 25 26 27 -28 29 62 63 64 65 66 -67 -68 69 70 107 108 -109 110 111 112 113 114 125 126 127 -128 129 130 131 -132 -165 166 167 168 169 170 171 182 183 184 185 186 187 -228 229 230 231 232 233 274 275 276 277 278 319 320 321 322 323 334 335 0
1 2 3 4 5 6 7 8 -9 10 20 21 22 -23 24 25 26 27 28 -29 62 63 64 65 66 -67 -68 69 70 -107 108 109 110 111 112 113 114 125 126 -127 128 129 130 131 132 -165 166 167 168 169 170 171 182 183 184 185 186 187 -228 229 230 231 232 233 274 275 -276 277 278 319 320 321 322 323 334 335 0
-1 2 3 4 5 6 7 8 9 10 20 21 22 -23 24 25 26 -27 28 29 62 63 64 65 66 -67 68 69 70 -107 108 109 110 111 112 113 114 125 126 -127 128 129 130 131 132 -165 166 167 168 169 170 171 182 183 184 185 186 187 228 229 230 231 -232 233 274 275 -276 277 -278 319 320 321 322 323 334 335 0
1 2 3 4 5 -6 7 8 9 10 20 21 22 -23 24 25 -26 27 28 29 62 -63 64 65 66 67 68 69 -70 107 108 109 110 111 -112 113 114 125 126 -127 -128 129 130 131 132 165 166 167 168 169 170 171 182 183 184 185 186 -187 228 229 230 -231 232 233 274 275 276 277 278 319 320 321 322 323 334 335 0
1 2 3 4 5 -6 7 8 9 10 20 21 22 23 24 25 -26 -27 28 29 62 -63 64 65 66 67 68 69 -70 -107 108 109 110 111 112 113 114 125 126 -127 128 129 130 131 132 165 166 167 168 169 170 171 -182 183 184 185 186 -187 228 229 230 231 232 233 274 275 -276 277 278 319 320 321 322 323 334 335 0
1 2 3 4 5 -6 7 8 9 10 -20 21 22 23 24 25 -26 27 28 29 62 63 64 65 66 67 68 69 -70 -107 108 109 110 111 112 113 114 125 126 -127 128 129 130 131 132 165 166 167 168 169 -170 171 -182 183 184 185 186 -187 228 229 230 231 232 233 274 275 -276 277 278 319 320 321 322 323 334 335 0
-1 2 3 4 5 6 7 8 9 10 20 21 22 -23 -24 25 26 27 28 29 62 63 64 65 -66 67 68 69 70 -107 108 109 110 111 112 113 114 125 126 -127 128 129 130 131 132 165 166 167 168 169 -170 171 182 183 184 185 186 -187 228 229 230 231 232 233 274 275 276 277 -278 319 320 321 -322 323 334 335 0
-1 2 3 4 5 6 7 8 9 10 20 21 22 -23 -24 25 26 27 28 29 62 63 64 65 66 67 68 -69 70 107 108 109 -110 111 112 113 114 125 126 -127 128 129 130 131 -132 165 166 167 168 169 -170 171 182 -183 184 185 186 187 228 229 230 231 232 233 274 275 276 277 278 319 320 321 -322 323 334 335 0
-1 2 3 4 5 6 7 8 9 10 20 21 22 -23 -24 25 26 27 28 29 62 63 64 65 66 -67 68 69 70 107 108 109 -110 111 112 113 114 125 126 -127 128 129 130 131 -132 165 166 -167 168 169 170 171 182 183 184 185 -186 187 228 229 230 231 232 233 274 275 276 277 278 319 320 321 322 323 -334 335 0
1 2 3 4 5 -6 7 8 9 10 20 21 -22 -23 24 25 26 27 28 29 62 63 64 -65 66 67 68 -69 70 107 -108 109 110 111 112 113 114 125 126 -127 128 129 130 131 -132 165 166 167 168 169 170 171 182 183 184 185 186 187 228 229 230 231 232 233 274 275 -276 277 278 319 320 321 -322 323 334 335 0
1 2 3 4 5 -6 7 8 9 10 20 21 22 23 24 25 26 -27 28 -29 62 63 64 -65 66 67 68 -69 70 -107 108 109 110 111 112 113 114 125 126 -127 128 129 130 131 132 -165 166 167 168 169 170 171 182 183 184 -185 186 187 228 229 230 231 232 233 274 275 -276 277 278 319 320 321 322 323 334 335 0
1 2 3 4 5 -6 7 8 9 10 -20 21 22 23 24 25 26 -27 28 29 62 63 64 -65 66 67 68 69 70 -107 108 109 110 111 112 113 114 125 126 127 128 129 130 131 -132 -165 166 167 168 169 170 171 182 183 184 185 186 -187 228 229 230 -231 232 233 274 -275 276 277 278 319 320 321 322 323 334 335 0
1 2 3 4 5 -6 7 8 9 10 -20 21 22 23 24 25 26 -27 28 29 62 63 64 -65 66 67 68 69 70 -107 108 109 110 111 112 113 114 125 126 -127 128 129 130 131 132 -165 166 167 168 169 170 171 182 183 184 185 186 -187 228 229 230 231 232 233 274 275 -276 277 278 319 320 321 322 -323 334 335 0
1 2 3 4 5 -6 7 8 9 10 20 21 22 23 -24 25 26 -27 28 29 62 63 -64 65 66 67 -68 69 70 107 108 -109 110 111 112 113 114 125 126 127 128 129 -130 131 -132 165 166 -167 168 169 170 171 182 183 184 185 186 -187 228 229 230 231 232 233 274 275 276 277 278 319 320 321 322 323 334 335 0
1 2 3 4 5 -6 7 8 9 10 20 21 22 23 -24 25 26 27 28 -29 62 63 64 65 -66 67 -68 69 70 -107 108 109 110 111 112 113 114 125 126 -127 128 129 130 131 132 165 166 167 168 169 -170 171 182 183 184 -185 186 -187 228 229 230 231 232 233 274 275 276 277 278 319 320 321 322 323 334 335 0
1 2 -3 4 5 6 7 8 9 10 20 21 22 -23 24 25 26 -27 28 29 62 63 64 65 66 -67 68 69 -70 107 108 -109 110 111 112 113 114 125 126 127 -128 129 130 131 132 165 -166 167 168 169 170 171 182 183 184 185 -186 187 228 229 230 231 232 233 274 275 276 -277 278 319 320 321 322 323 334 335 0
1 2 -3 4 5 6 7 8 9 10 20 21 22 -23 24 25 26 -27 28 29 62 63 64 65 66 -67 68 -69 70 107 108 109 110 111 112 113 -114 125 126 127 -128 129 130 131 132 165 -166 167 168 169 170 171 182 183 184 185 -186 187 -228 229 230 231 232 233 274 275 276 277 278 319 320 321 322 323 334 335 0
1 2 3 4 -5 6 7 8 9 10 20 21 22 23 24 25 26 -27 -28 29 62 63 64 65 -66 -67 68 69 70 107 108 109 110 111 112 113 -114 125 126 -127 -128 129 130 131 132 165 -166 167 168 169 170 171 182 183 184 185 -186 187 228 229 230 231 232 233 274 275 276 277 278 319 320 321 322 323 334 335 0
1 2 3 4 -5 6 7 8 9 10 -20 21 22 23 24 25 26 -27 28 29 62 63 64 65 66 -67 68 69 70 107 108 109 110 111 112 -113 114 125 -126 127 -128 129 130 131 132 165 -166 167 168 169 170 171 182 183 184 185 186 187 -228 229 230 231 232 233 274 275 276 277 278 319 320 321 322 323 334 -335 0
1 -2 3 4 5 6 7 8 9 10 -20 21 22 23 24 25 26 -27 28 29 62 63 64 65 66 67 68 -69 70 107 108 109 110 111 112 113 114 125 -126 127 -128 129 130 131 132 -165 166 167 168 169 170 171 182 183 184 185 186 187 -228 229 -230 231 232 233 274 275 276 277 278 319 320 321 322 323 334 -335 0
1 2 3 4 5 6 7 8 -9 10 -20 21 22 23 24 25 26 -27 28 29 62 63 64 65 -66 67 68 69 70 107 108 -109 110 111 112 113 114 125 -126 127 -128 129 130 131 132 -165 166 167 168 169 170 171 182 183 184 185 186 187 228 229 -230 231 232 233 274 275 276 277 278 319 320 321 322 323 334 -335 0
1 2 3 4 5 6 7 -8 9 10 20 21 22 -23 24 25 26 -27 28 29 62 63 64 65 66 67 68 -69 -70 107 108 -109 110 111 112 113 114 125 -126 127 -128 129 130 131 132 165 166 -167 168 169 170 171 182 183 184 185 186 187 228 229 -230 231 232 233 274 275 276 277 278 319 320 321 322 323 334 335 0
1 2 3 4 5 6 7 -8 9 10 -20 21 22 -23 24 25 26 27 28 29 62 63 64 65 66 67 68 -69 70 107 108 -109 110 111 112 113 114 125 -126 127 -128 129 130 131 132 165 -166 167 168 169 170 171 182 183 184 185 186 187 228 229 230 231 232 233 274 275 276 277 -278 319 320 321 -322 323 334 335 0
1 -2 3 4 5 6 7 8 9 10 20 21 22 -23 24 25 26 -27 28 29 62 63 64 65 66 -67 68 -69 70 107 108 109 110 111 112 113 114 125 -126 127 -128 129 130 131 132 165 -166 167 168 169 170 171 182 183 184 185 186 187 228 229 230 -231 232 233 274 275 276 277 -278 319 320 321 322 323 334 335 0
1 2 3 4 5 6 7 -8 9 10 20 -21 22 -23 24 25 26 27 28 29 62 63 64 65 -66 -67 68 69 70 107 108 109 110 111 112 113 114 125 -126 127 128 129 130 131 -132 165 -166 167 168 169 170 171 182 183 184 185 186 187 228 229 230 -231 232 233 274 275 276 -277 278 319 320 321 322 323 334 335 0
1 2 3 4 5 6 7 -8 9 10 -20 21 22 23 24 25 26 -27 28 29 62 63 64 65 66 -67 68 69 70 -107 108 109 110 111 112 113 114 125 -126 127 128 129 130 131 132 165 -166 167 168 169 170 171 182 183 184 185 186 -187 -228 229 230 231 232 233 274 275 276 277 -278 319 320 321 322 323 334 335 0
1 2 3 4 5 6 7 -8 9 10 20 -21 22 -23 24 25 26 27 28 29 62 63 64 65 -66 67 68 -69 70 107 108 109 110 111 112 113 114 125 -126 127 128 129 130 131 -132 165 -166 167 168 169 170 171 182 183 184 185 186 187 -228 229 230 231 232 233 274 275 276 277 278 319 320 321 -322 323 334 335 0
1 2 3 4 5 -6 7 8 9 10 20 -21 22 23 24 25 26 -27 28 29 62 63 64 65 -66 67 68 -69 70 107 108 109 110 111 112 113 114 125 -126 127 128 129 130 131 -132 165 -166 167 168 169 170 171 182 183 184 -185 186 187 228 229 230 -231 232 233 274 275 276 277 278 319 320 321 322 323 334 335 0
1 2 3 4 5 -6 7 8 9 10 20 -21 22 23 24 25 26 27 28 -29 62 63 64 65 -66 67 68 -69 70 107 108 109 110 111 112 113 114 125 -126 127 128 129 -130 131 132 165 -166 167 168 169 170 171 182 183 184 185 -186 187 228 229 230 -231 232 233 274 275 276 277 278 319 320 321 322 323 334 335 0
-1 2 3 4 5 6 7 8 9 10 20 21 22 -23 24 25 26 27 28 -29 62 63 64 65 66 -67 68 69 70 107 108 109 -110 111 112 113 114 125 -126 -127 128 129 130 131 132 165 166 167 168 169 -170 171 182 183 184 185 186 187 -228 229 230 231 232 233 274 275 276 277 278 319 320 321 322 323 -334 335 0
-1 2 3 4 5 6 7 8 9 10 20 21 22 -23 24 25 26 27 28 -29 62 63 64 65 66 -67 68 69 70 107 108 109 -110 111 112 113 114 125 -126 -127 128 129 130 131 132 165 166 -167 168 169 170 171 182 183 184 185 186 187 228 229 230 -231 232 233 274 275 276 277 278 319 320 321 322 323 -334 335 0
-1 2 3 4 5 6 7 8 9 10 20 21 22 23 24 25 26 -27 -28 29 62 63 64 65 66 -67 68 69 70 107 108 109 -110 111 112 113 114 125 126 -127 128 129 130 131 -132 -165 166 167 168 169 170 171 182 -183 184 185 186 187 228 229 230 -231 232 233 274 275 276 277 278 319 320 321 322 323 334 335 0
1 2 3 4 5 -6 7 8 9 10 -20 21 22 23 24 25 26 -27 28 29 62 63 64 65 66 67 68 -69 70 107 108 109 110 111 -112 113 114 125 126 -127 128 129 130 131 -132 -165 166 167 168 169 170 171 182 -183 184 185 186 187 228 229 -230 231 232 233 274 275 276 277 278 319 320 321 322 323 334 335 0
1 2 3 4 5 -6 7 8 9 10 -20 21 22 23 24 25 26 -27 28 29 62 63 64 65 66 67 68 -69 70 107 108 -109 110 111 112 113 114 125 -126 127 128 129 130 131 -132 165 166 167 168 169 -170 171 182 -183 184 185 186 187 228 229 -230 231 232 233 274 275 276 277 278 319 320 321 322 323 334 335 0
1 2 3 4 5 -6 7 8 9 10 20 21 -22 23 24 25 26 -27 28 29 62 63 64 65 -66 67 68 -69 70 107 108 -109 110 111 112 113 114 125 -126 127 128 129 130 131 -132 165 166 167 168 169 170 171 182 183 184 185 -186 187 228 229 -230 231 232 233 274 275 276 277 278 319 320 321 322 323 334 335 0
1 2 3 4 5 -6 7 8 9 10 -20 21 22 23 24 25 26 27 28 -29 62 63 -64 65 66 67 68 69 70 107 108 -109 110 111 112 113 114 125 126 -127 128 129 130 -131 132 165 166 167 168 169 -170 171 182 183 184 -185 186 187 228 229 230 231 232 233 274 275 -276 277 278 319 320 321 322 323 334 335 0
1 2 3 4 5 -6 7 8 9 10 20 21 22 23 24 25 26 -27 28 -29 62 -63 -64 65 66 67 68 69 70 107 108 -109 110 111 112 113 114 125 126 -127 128 129 130 -131 132 165 166 167 168 169 170 171 182 183 184 -185 186 187 228 229 230 231 232 233 274 275 -276 277 278 319 320 321 322 323 334 335 0
-1 2 3 4 5 6 7 8 9 10 20 21 22 -23 -24 25 26 27 28 29 62 63 64 65 -66 67 68 69 70 107 108 -109 110 111 112 113 114 125 126 127 -128 129 130 -131 132 165 166 167 168 169 -170 171 182 183 184 -185 186 187 228 229 230 231 232 233 274 275 276 277 278 319 320 321 322 323 334 -335 0
1 2 3 4 5 6 7 -8 9 10 20 21 22 -23 24 25 26 27 28 -29 62 63 64 65 -66 -67 68 69 70 107 108 109 110 111 -112 113 114 125 126 -127 128 129 130 -131 132 165 -166 167 168 169 170 171 182 -183 184 185 186 187 228 229 230 231 232 233 274 275 276 277 278 319 320 321 322 323 334 335 0
1 2 3 4 -5 6 7 8 9 10 20 21 22 -23 24 25 26 -27 28 29 62 63 64 65 66 -67 68 69 -70 107 108 109 110 111 -112 113 114 125 126 -127 -128 129 130 131 132 165 -166 167 168 169 170 171 182 183 184 185 186 187 228 229 230 231 232 233 274 275 276 -277 278 319 320 321 322 323 334 335 0
1 -2 3 4 5 6 7 8 9 10 20 21 22 -23 -24 25 26 27 28 29 62 63 64 -65 -66 67 68 69 70 107 108 109 110 111 112 113 114 -125 126 127 -128 129 130 131 132 165 166 167 168 169 170 171 182 183 184 185 186 -187 228 229 230 231 232 233 274 275 276 277 278 319 320 321 -322 323 334 -335 0
1 2 3 4 5 6 7 -8 9 10 20 21 22 23 -24 25 26 27 28 -29 62 63 -64 65 -66 67 68 69 70 107 108 109 -110 111 112 113 114 -125 126 -127 128 129 130 131 132 165 166 167 168 169 170 171 182 183 184 185 186 -187 228 229 230 231 232 233 274 275 276 277 278 319 320 321 -322 323 334 335 0
1 2 3 4 5 6 7 -8 9 10 -20 21 22 23 -24 25 26 27 28 29 62 63 -64 65 66 67 68 69 70 107 108 109 -110 111 112 113 114 125 126 -127 128 129 130 131 -132 165 166 -167 168 169 170 171 182 183 184 185 186 -187 228 229 230 231 232 233 274 275 276 277 278 319 320 321 -322 323 334 335 0
1 2 3 4 5 6 7 -8 9 10 20 21 22 23 -24 25 26 -27 28 29 62 63 -64 65 66 -67 68 69 70 107 108 109 -110 111 112 113 114 -125 126 127 128 129 130 131 -132 165 166 167 168 169 170 171 182 183 184 185 186 -187 -228 229 230 231 232 233 274 275 276 277 278 319 320 321 322 323 334 335 0
1 2 3 4 5 -6 7 8 9 10 20 21 22 23 -24 25 26 -27 28 29 62 -63 64 -65 66 67 68 69 70 107 -108 109 110 111 112 113 114 125 126 127 -128 129 -130 131 132 165 166 167 168 169 170 171 182 183 184 185 186 -187 228 229 230 231 232 233 274 275 276 277 278 319 320 321 322 323 334 -335 0
1 2 3 4 5 -6 7 8 9 10 -20 21 22 23 -24 25 26 27 28 29 62 63 64 -65 66 67 68 69 70 107 -108 109 110 111 112 113 114 125 126 127 -128 129 -130 131 132 165 166 167 168 169 -170 171 182 183 184 185 186 -187 228 229 230 231 232 233 274 275 276 277 278 319 320 321 322 323 334 -335 0
1 2 3 4 5 6 7 -8 9 10 20 21 22 -23 -24 25 26 27 28 29 62 63 64 65 66 -67 68 -69 70 107 108 109 -110 111 112 113 114 125 126 127 -128 129 130 131 -132 165 166 167 168 169 -170 171 -182 183 184 185 186 187 228 229 230 231 232 233 274 275 276 277 278 319 320 321 322 323 334 335 0
1 2 3 4 5 -6 7 8 9 10 20 21 22 23 24 25 26 27 -28 -29 62 63 64 65 66 -67 -68 69 70 107 108 -109 110 111 112 113 114 -125 126 127 -128 129 130 131 132 165 166 167 168 169 170 171 -182 183 184 185 -186 187 228 229 230 231 232 233 274 275 276 277 278 319 320 321 322 323 334 335 0
1 2 3 4 5 -6 7 8 9 10 20 21 22 23 24 25 26 27 -28 -29 62 63 64 65 66 -67 -68 69 70 107 -108 109 110 111 112 113 114 125 126 -127 -128 129 130 131 132 165 166 167 168 169 -170 171 -182 183 184 185 186 187 228 229 230 231 232 233 274 275 276 277 278 319 320 321 322 323 334 335 0
1 2 3 4 5 -6 7 8 9 10 20 21 22 23 24 25 26 27 -28 -29 62 63 64 -65 66 -67 68 69 70 107 -108 109 110 111 112 113 114 125 126 -127 -128 129 130 131 132 165 166 167 168 169 -170 171 182 183 184 185 -186 187 228 229 230 231 232 233 274 275 276 277 278 319 320 321 322 323 334 335 0
1 2 3 4 5 6 7 -8 9 10 20 21 22 -23 24 25 26 27 28 -29 62 63 64 -65 66 -67 68 69 70 -107 108 109 110 111 112 113 114 125 126 -127 128 129 130 131 132 -165 166 167 168 169 170 171 182 183 184 185 186 187 228 229 230 231 232 233 274 275 -276 -277 278 319 320 321 322 323 334 335 0
-1 2 3 4 5 6 7 8 9 10 20 21 22 -23 -24 25 26 27 28 29 62 63 64 65 66 67 -68 69 70 107 108 -109 110 111 112 113 114 125 126 127 -128 129 -130 131 132 -165 166 167 168 169 170 171 182 183 184 185 186 187 228 229 230 231 232 233 274 275 276 -277 278 319 320 321 322 323 334 -335 0
1 2 3 4 5 -6 7 8 9 10 -20 21 22 23 24 25 -26 27 28 29 -62 63 64 65 66 67 68 69 70 107 108 109 110 111 112 113 114 125 126 -127 -128 129 130 131 132 -165 166 167 168 169 170 171 182 183 184 185 -186 187 228 229 230 231 -232 233 274 275 276 277 278 319 320 321 322 323 334 -335 0
1 2 3 4 5 6 -7 8 9 10 20 21 22 23 -24 25 26 -27 28 29 62 -63 64 65 66 67 68 69 -70 107 108 109 -110 111 112 113 114 125 126 -127 -128 129 130 131 132 165 166 167 168 169 170 171 182 183 184 185 -186 -187 228 229 230 231 232 233 274 275 276 277 278 319 320 321 322 323 334 335 0
1 2 3 4 5 6 -7 8 9 10 -20 21 22 23 -24 25 26 27 28 29 62 63 64 65 66 67 68 69 -70 107 108 109 -110 111 112 113 114 125 126 -127 -128 129 130 131 132 165 166 167 168 169 -170 171 182 183 184 185 -186 -187 228 229 230 231 232 233 274 275 276 277 278 319 320 321 322 323 334 335 0
-1 2 3 4 5 6 7 8 9 10 20 21 22 23 -24 25 26 -27 28 29 62 63 64 65 66 67 68 -69 70 107 108 109 -110 111 112 113 114 125 126 127 -128 129 -130 131 132 -165 166 167 168 169 170 171 -182 183 184 185 186 187 228 229 230 231 232 233 274 275 276 277 278 319 320 321 322 323 334 -335 0
1 2 3 4 5 6 -7 8 9 10 20 21 22 -23 24 25 26 -27 28 29 62 63 64 -65 66 67 68 -69 70 107 108 109 110 111 112 113 -114 125 126 -127 -128 129 130 131 132 -165 166 167 168 169 170 171 182 183 184 185 186 187 228 229 230 231 232 233 274 275 -276 277 278 319 320 321 322 323 334 335 0
1 2 3 4 5 6 -7 8 9 10 20 21 22 -23 -24 25 26 27 28 29 62 63 64 65 -66 67 -68 69 70 107 108 109 110 111 112 113 -114 125 126 -127 -128 129 130 131 132 165 166 167 168 169 -170 171 182 183 184 185 186 -187 228 229 230 231 232 233 274 275 276 277 278 319 320 321 322 323 334 335 0
1 2 3 4 5 -6 7 8 9 10 20 21 22 -23 24 25 26 27 28 -29 62 63 64 -65 66 -67 68 69 70 107 -108 109 110 111 112 113 114 -125 126 -127 128 129 130 131 132 165 166 167 168 169 170 171 182 183 184 185 186 187 228 229 230 231 232 233 274 275 -276 277 278 319 320 321 322 323 -334 335 0
1 2 3 4 5 -6 7 8 9 10 20 21 -22 -23 24 25 26 27 28 29 62 63 64 -65 66 -67 68 69 70 107 108 109 110 111 112 -113 114 125 126 -127 128 129 130 131 -132 165 166 167 168 169 170 171 182 183 184 185 -186 187 228 229 230 231 232 233 274 275 -276 277 278 319 320 321 322 323 334 335 0
1 2 3 4 5 -6 7 8 9 10 20 21 -22 -23 24 25 26 27 28 29 62 63 64 65 66 -67 -68 69 70 107 -108 109 110 111 112 113 114 125 126 -127 128 129 130 131 -132 165 166 167 168 169 170 171 182 183 184 185 186 187 228 229 230 231 -232 233 274 275 -276 277 278 319 320 321 322 323 334 335 0
1 2 3 4 5 -6 7 8 9 10 20 21 -22 -23 24 25 26 27 28 29 62 63 64 65 66 -67 -68 69 70 107 108 109 110 111 112 -113 114 125 126 -127 128 129 130 131 -132 165 166 167 168 169 170 171 -182 183 184 185 186 187 228 229 230 231 232 233 274 275 -276 277 278 319 320 321 322 323 334 335 0
1 2 3 4 5 -6 7 8 9 10 20 21 -22 -23 24 25 26 27 28 29 62 63 64 -65 -66 67 68 69 70 107 108 109 110 111 -112 113 114 125 126 -127 128 129 130 131 -132 165 166 167 168 169 170 171 182 183 184 185 186 -187 228 229 230 231 232 233 274 275 276 277 278 319 320 321 -322 323 334 335 0
1 2 3 4 5 -6 7 8 9 10 -20 21 22 23 24 25 -26 27 28 29 62 63 -64 65 66 67 68 69 70 107 108 109 110 111 112 113 -114 -125 126 -127 128 129 130 131 132 165 166 167 168 169 170 171 182 183 184 185 186 -187 228 229 230 -231 232 233 274 275 -276 277 278 319 320 321 322 323 334 335 0
1 2 3 4 5 -6 7 8 9 10 -20 21 22 23 24 25 26 -27 28 29 62 63 64 65 66 67 68 69 -70 107 108 109 110 111 -112 113 114 -125 126 -127 128 129 130 131 132 165 166 167 168 169 170 171 182 -183 184 185 186 -187 228 229 -230 231 232 233 274 275 276 277 278 319 320 321 322 323 334 335 0
1 2 3 4 5 6 7 -8 9 10 20 21 22 -23 -24 25 26 27 28 29 62 63 64 65 66 -67 -68 69 70 -107 108 109 110 111 112 113 114 125 126 127 128 129 130 131 -132 165 166 -167 168 169 170 171 182 183 184 185 186 -187 -228 229 230 231 232 233 274 275 276 277 278 319 320 321 322 323 334 335 0
1 -2 3 4 5 6 7 8 9 10 20 21 22 -23 24 25 26 27 28 -29 62 63 -64 65 66 -67 68 69 70 107 108 109 110 111 112 113 114 125 126 -127 128 129 130 -131 132 165 166 -167 168 169 170 171 182 183 184 185 186 187 228 229 230 -231 232 233 274 275 -276 277 278 319 320 321 322 323 334 335 0
1 2 3 4 5 -6 7 8 9 10 20 21 22 -23 -24 25 26 27 28 29 62 63 64 65 66 67 -68 -69 70 107 108 -109 110 111 112 113 114 125 126 127 -128 129 130 131 -132 165 166 167 168 169 -170 171 182 183 184 -185 186 187 228 229 230 231 232 233 274 275 276 277 278 319 320 321 322 323 334 335 0
1 2 3 4 5 6 7 -8 9 10 -20 21 22 -23 24 25 26 27 28 29 62 63 64 65 66 67 68 69 -70 107 108 -109 110 111 112 113 114 125 126 127 -128 129 130 -131 132 165 -166 167 168 169 170 171 182 183 184 185 -186 187 228 229 230 231 232 233 274 -275 276 277 278 319 320 321 322 323 334 335 0
1 2 3 4 5 6 7 -8 9 10 -20 21 22 23 24 25 26 27 28 -29 62 63 64 65 66 67 68 -69 70 107 108 109 -110 111 112 113 114 125 -126 -127 128 129 130 131 132 165 -166 167 168 169 170 171 182 -183 184 185 186 187 228 229 230 231 232 233 274 275 276 277 278 319 320 321 -322 323 334 335 0
1 2 3 4 5 -6 7 8 9 10 20 21 22 23 24 25 26 -27 28 -29 62 63 64 65 66 67 -68 -69 70 107 108 -109 110 111 112 113 114 125 -126 127 128 129 -130 131 132 165 -166 167 168 169 170 171 182 -183 184 185 186 187 228 229 230 231 232 233 274 275 276 277 278 319 320 321 322 323 334 335 0
