p cnf 961 1829
1 12 0
-12 13 0
2 -12 14 0
-14 15 0
3 -14 16 0
-16 17 0
4 -16 18 0
-18 19 0
5 -18 20 0
-20 21 0
6 -20 22 0
-22 23 0
7 -22 24 0
-24 25 0
8 -24 26 0
-26 27 0
9 -26 28 0
-28 29 0
10 -28 0
2 13 0
3 -13 15 0
4 -15 17 0
5 -17 19 0
6 -19 21 0
7 -21 23 0
8 -23 25 0
9 -25 27 0
10 -27 29 0
11 -29 0
-1 30 0
-30 31 0
-2 -30 32 0
-32 33 0
-3 -32 0
-2 31 0
-31 34 0
-3 -31 33 0
-33 35 0
-4 -33 0
-3 34 0
-34 36 0
-4 -34 35 0
-35 37 0
-5 -35 0
-4 36 0
-36 38 0
-5 -36 37 0
-37 39 0
-6 -37 0
-5 38 0
-38 40 0
-6 -38 39 0
-39 41 0
-7 -39 0
-6 40 0
-40 42 0
-7 -40 41 0
-41 43 0
-8 -41 0
-7 42 0
-42 44 0
-8 -42 43 0
-43 45 0
-9 -43 0
-8 44 0
-44 46 0
-9 -44 45 0
-45 47 0
-10 -45 0
-9 46 0
-10 -46 47 0
-11 -47 0
48 49 50 51 52 53 54 55 56 57 0
-48 58 0
-58 59 0
-49 -58 0
-49 59 0
-59 60 0
-50 -59 0
-50 60 0
-60 61 0
-51 -60 0
-51 61 0
-61 62 0
-52 -61 0
-52 62 0
-62 63 0
-53 -62 0
-53 63 0
-63 64 0
-54 -63 0
-54 64 0
-64 65 0
-55 -64 0
-55 65 0
-65 66 0
-56 -65 0
-56 66 0
-57 -66 0
1 48 67 68 69 70 71 72 73 74 75 0
-1 76 0
-76 77 0
-48 -76 0
-48 77 0
-77 78 0
-67 -77 0
-67 78 0
-78 79 0
-68 -78 0
-68 79 0
-79 80 0
-69 -79 0
-69 80 0
-80 81 0
-70 -80 0
-70 81 0
-81 82 0
-71 -81 0
-71 82 0
-82 83 0
-72 -82 0
-72 83 0
-83 84 0
-73 -83 0
-73 84 0
-84 85 0
-74 -84 0
-74 85 0
-75 -85 0
2 95 0
-95 96 0
49 -95 97 0
-97 98 0
67 -97 99 0
-99 100 0
86 -99 101 0
-101 102 0
87 -101 103 0
-103 104 0
88 -103 105 0
-105 106 0
89 -105 107 0
-107 108 0
90 -107 109 0
-109 110 0
91 -109 111 0
-111 112 0
92 -111 113 0
-113 114 0
93 -113 0
49 96 0
67 -96 98 0
86 -98 100 0
87 -100 102 0
88 -102 104 0
89 -104 106 0
90 -106 108 0
91 -108 110 0
92 -110 112 0
93 -112 114 0
94 -114 0
-2 115 0
-115 116 0
-49 -115 117 0
-117 118 0
-67 -117 0
-49 116 0
-116 119 0
-67 -116 118 0
-118 120 0
-86 -118 0
-67 119 0
-119 121 0
-86 -119 120 0
-120 122 0
-87 -120 0
-86 121 0
-121 123 0
-87 -121 122 0
-122 124 0
-88 -122 0
-87 123 0
-123 125 0
-88 -123 124 0
-124 126 0
-89 -124 0
-88 125 0
-125 127 0
-89 -125 126 0
-126 128 0
-90 -126 0
-89 127 0
-127 129 0
-90 -127 128 0
-128 130 0
-91 -128 0
-90 129 0
-129 131 0
-91 -129 130 0
-130 132 0
-92 -130 0
-91 131 0
-131 133 0
-92 -131 132 0
-132 134 0
-93 -132 0
-92 133 0
-93 -133 134 0
-94 -134 0
 0
4 150 0
-150 151 0
50 -150 152 0
-152 153 0
68 -152 154 0
-154 155 0
87 -154 156 0
-156 157 0
135 -156 158 0
-158 159 0
143 -158 160 0
-160 161 0
144 -160 162 0
-162 163 0
145 -162 164 0
-164 165 0
146 -164 166 0
-166 167 0
147 -166 168 0
-168 169 0
148 -168 0
50 151 0
68 -151 153 0
87 -153 155 0
135 -155 157 0
143 -157 159 0
144 -159 161 0
145 -161 163 0
146 -163 165 0
147 -165 167 0
148 -167 169 0
149 -169 0
-4 170 0
-170 171 0
-50 -170 172 0
-172 173 0
-68 -172 0
-50 171 0
-171 174 0
-68 -171 173 0
-173 175 0
-87 -173 0
-68 174 0
-174 176 0
-87 -174 175 0
-175 177 0
-135 -175 0
-87 176 0
-176 178 0
-135 -176 177 0
-177 179 0
-143 -177 0
-135 178 0
-178 180 0
-143 -178 179 0
-179 181 0
-144 -179 0
-143 180 0
-180 182 0
-144 -180 181 0
-181 183 0
-145 -181 0
-144 182 0
-182 184 0
-145 -182 183 0
-183 185 0
-146 -183 0
-145 184 0
-184 186 0
-146 -184 185 0
-185 187 0
-147 -185 0
-146 186 0
-186 188 0
-147 -186 187 0
-187 189 0
-148 -187 0
-147 188 0
-148 -188 189 0
-149 -189 0
5 51 69 88 136 143 190 191 192 193 194 195 0
-5 196 0
-196 197 0
-51 -196 0
-51 197 0
-197 198 0
-69 -197 0
-69 198 0
-198 199 0
-88 -198 0
-88 199 0
-199 200 0
-136 -199 0
-136 200 0
-200 201 0
-143 -200 0
-143 201 0
-201 202 0
-190 -201 0
-190 202 0
-202 203 0
-191 -202 0
-191 203 0
-203 204 0
-192 -203 0
-192 204 0
-204 205 0
-193 -204 0
-193 205 0
-205 206 0
-194 -205 0
-194 206 0
-195 -206 0
52 213 0
-213 214 0
70 -213 215 0
-215 216 0
89 -215 217 0
-217 218 0
137 -217 219 0
-219 220 0
144 -219 221 0
-221 222 0
190 -221 223 0
-223 224 0
207 -223 225 0
-225 226 0
208 -225 227 0
-227 228 0
209 -227 229 0
-229 230 0
210 -229 231 0
-231 232 0
211 -231 0
70 214 0
89 -214 216 0
137 -216 218 0
144 -218 220 0
190 -220 222 0
207 -222 224 0
208 -224 226 0
209 -226 228 0
210 -228 230 0
211 -230 232 0
212 -232 0
-52 233 0
-233 234 0
-70 -233 235 0
-235 236 0
-89 -235 0
-70 234 0
-234 237 0
-89 -234 236 0
-236 238 0
-137 -236 0
-89 237 0
-237 239 0
-137 -237 238 0
-238 240 0
-144 -238 0
-137 239 0
-239 241 0
-144 -239 240 0
-240 242 0
-190 -240 0
-144 241 0
-241 243 0
-190 -241 242 0
-242 244 0
-207 -242 0
-190 243 0
-243 245 0
-207 -243 244 0
-244 246 0
-208 -244 0
-207 245 0
-245 247 0
-208 -245 246 0
-246 248 0
-209 -246 0
-208 247 0
-247 249 0
-209 -247 248 0
-248 250 0
-210 -248 0
-209 249 0
-249 251 0
-210 -249 250 0
-250 252 0
-211 -250 0
-210 251 0
-211 -251 252 0
-212 -252 0
6 258 0
-258 259 0
71 -258 260 0
-260 261 0
90 -260 262 0
-262 263 0
138 -262 264 0
-264 265 0
145 -264 266 0
-266 267 0
191 -266 268 0
-268 269 0
207 -268 270 0
-270 271 0
253 -270 272 0
-272 273 0
254 -272 274 0
-274 275 0
255 -274 276 0
-276 277 0
256 -276 0
71 259 0
90 -259 261 0
138 -261 263 0
145 -263 265 0
191 -265 267 0
207 -267 269 0
253 -269 271 0
254 -271 273 0
255 -273 275 0
256 -275 277 0
257 -277 0
-6 278 0
-278 279 0
-71 -278 280 0
-280 281 0
-90 -280 0
-71 279 0
-279 282 0
-90 -279 281 0
-281 283 0
-138 -281 0
-90 282 0
-282 284 0
-138 -282 283 0
-283 285 0
-145 -283 0
-138 284 0
-284 286 0
-145 -284 285 0
-285 287 0
-191 -285 0
-145 286 0
-286 288 0
-191 -286 287 0
-287 289 0
-207 -287 0
-191 288 0
-288 290 0
-207 -288 289 0
-289 291 0
-253 -289 0
-207 290 0
-290 292 0
-253 -290 291 0
-291 293 0
-254 -291 0
-253 292 0
-292 294 0
-254 -292 293 0
-293 295 0
-255 -293 0
-254 294 0
-294 296 0
-255 -294 295 0
-295 297 0
-256 -295 0
-255 296 0
-256 -296 297 0
-257 -297 0
7 302 0
-302 303 0
53 -302 304 0
-304 305 0
91 -304 306 0
-306 307 0
139 -306 308 0
-308 309 0
146 -308 310 0
-310 311 0
192 -310 312 0
-312 313 0
208 -312 314 0
-314 315 0
253 -314 316 0
-316 317 0
298 -316 318 0
-318 319 0
299 -318 320 0
-320 321 0
300 -320 0
53 303 0
91 -303 305 0
139 -305 307 0
146 -307 309 0
192 -309 311 0
208 -311 313 0
253 -313 315 0
298 -315 317 0
299 -317 319 0
300 -319 321 0
301 -321 0
-7 322 0
-322 323 0
-53 -322 324 0
-324 325 0
-91 -324 0
-53 323 0
-323 326 0
-91 -323 325 0
-325 327 0
-139 -325 0
-91 326 0
-326 328 0
-139 -326 327 0
-327 329 0
-146 -327 0
-139 328 0
-328 330 0
-146 -328 329 0
-329 331 0
-192 -329 0
-146 330 0
-330 332 0
-192 -330 331 0
-331 333 0
-208 -331 0
-192 332 0
-332 334 0
-208 -332 333 0
-333 335 0
-253 -333 0
-208 334 0
-334 336 0
-253 -334 335 0
-335 337 0
-298 -335 0
-253 336 0
-336 338 0
-298 -336 337 0
-337 339 0
-299 -337 0
-298 338 0
-338 340 0
-299 -338 339 0
-339 341 0
-300 -339 0
-299 340 0
-300 -340 341 0
-301 -341 0
8 345 0
-345 346 0
54 -345 347 0
-347 348 0
72 -347 349 0
-349 350 0
140 -349 351 0
-351 352 0
147 -351 353 0
-353 354 0
193 -353 355 0
-355 356 0
209 -355 357 0
-357 358 0
254 -357 359 0
-359 360 0
298 -359 361 0
-361 362 0
342 -361 363 0
-363 364 0
343 -363 0
54 346 0
72 -346 348 0
140 -348 350 0
147 -350 352 0
193 -352 354 0
209 -354 356 0
254 -356 358 0
298 -358 360 0
342 -360 362 0
343 -362 364 0
344 -364 0
-8 365 0
-365 366 0
-54 -365 367 0
-367 368 0
-72 -367 0
-54 366 0
-366 369 0
-72 -366 368 0
-368 370 0
-140 -368 0
-72 369 0
-369 371 0
-140 -369 370 0
-370 372 0
-147 -370 0
-140 371 0
-371 373 0
-147 -371 372 0
-372 374 0
-193 -372 0
-147 373 0
-373 375 0
-193 -373 374 0
-374 376 0
-209 -374 0
-193 375 0
-375 377 0
-209 -375 376 0
-376 378 0
-254 -376 0
-209 377 0
-377 379 0
-254 -377 378 0
-378 380 0
-298 -378 0
-254 379 0
-379 381 0
-298 -379 380 0
-380 382 0
-342 -380 0
-298 381 0
-381 383 0
-342 -381 382 0
-382 384 0
-343 -382 0
-342 383 0
-343 -383 384 0
-344 -384 0
9 55 73 92 148 194 210 255 299 342 385 0
-9 386 0
-386 387 0
-55 -386 0
-55 387 0
-387 388 0
-73 -387 0
-73 388 0
-388 389 0
-92 -388 0
-92 389 0
-389 390 0
-148 -389 0
-148 390 0
-390 391 0
-194 -390 0
-194 391 0
-391 392 0
-210 -391 0
-210 392 0
-392 393 0
-255 -392 0
-255 393 0
-393 394 0
-299 -393 0
-299 394 0
-394 395 0
-342 -394 0
-342 395 0
-385 -395 0
10 397 0
-397 398 0
56 -397 399 0
-399 400 0
74 -399 401 0
-401 402 0
93 -401 403 0
-403 404 0
141 -403 405 0
-405 406 0
195 -405 407 0
-407 408 0
211 -407 409 0
-409 410 0
256 -409 411 0
-411 412 0
300 -411 413 0
-413 414 0
343 -413 415 0
-415 416 0
385 -415 0
56 398 0
74 -398 400 0
93 -400 402 0
141 -402 404 0
195 -404 406 0
211 -406 408 0
256 -408 410 0
300 -410 412 0
343 -412 414 0
385 -414 416 0
396 -416 0
-10 417 0
-417 418 0
-56 -417 419 0
-419 420 0
-74 -419 0
-56 418 0
-418 421 0
-74 -418 420 0
-420 422 0
-93 -420 0
-74 421 0
-421 423 0
-93 -421 422 0
-422 424 0
-141 -422 0
-93 423 0
-423 425 0
-141 -423 424 0
-424 426 0
-195 -424 0
-141 425 0
-425 427 0
-195 -425 426 0
-426 428 0
-211 -426 0
-195 427 0
-427 429 0
-211 -427 428 0
-428 430 0
-256 -428 0
-211 429 0
-429 431 0
-256 -429 430 0
-430 432 0
-300 -430 0
-256 431 0
-431 433 0
-300 -431 432 0
-432 434 0
-343 -432 0
-300 433 0
-433 435 0
-343 -433 434 0
-434 436 0
-385 -434 0
-343 435 0
-385 -435 436 0
-396 -436 0
11 57 75 94 142 149 212 257 301 344 396 0
-11 437 0
-437 438 0
-57 -437 0
-57 438 0
-438 439 0
-75 -438 0
-75 439 0
-439 440 0
-94 -439 0
-94 440 0
-440 441 0
-142 -440 0
-142 441 0
-441 442 0
-149 -441 0
-149 442 0
-442 443 0
-212 -442 0
-212 443 0
-443 444 0
-257 -443 0
-257 444 0
-444 445 0
-301 -444 0
-301 445 0
-445 446 0
-344 -445 0
-344 446 0
-396 -446 0
-447 0
-448 0
-449 0
-450 0
-451 0
-452 0
-453 0
-454 0
-455 0
-456 0
-457 0
-447 0
-458 0
-459 0
-460 0
-461 0
-462 0
-463 0
-464 0
-465 0
-466 0
-467 0
448 458 468 469 470 471 472 473 474 475 476 0
-448 477 0
-477 478 0
-458 -477 0
-458 478 0
-478 479 0
-468 -478 0
-468 479 0
-479 480 0
-469 -479 0
-469 480 0
-480 481 0
-470 -480 0
-470 481 0
-481 482 0
-471 -481 0
-471 482 0
-482 483 0
-472 -482 0
-472 483 0
-483 484 0
-473 -483 0
-473 484 0
-484 485 0
-474 -484 0
-474 485 0
-485 486 0
-475 -485 0
-475 486 0
-476 -486 0
449 459 468 487 488 489 490 491 492 493 494 0
-449 495 0
-495 496 0
-459 -495 0
-459 496 0
-496 497 0
-468 -496 0
-468 497 0
-497 498 0
-487 -497 0
-487 498 0
-498 499 0
-488 -498 0
-488 499 0
-499 500 0
-489 -499 0
-489 500 0
-500 501 0
-490 -500 0
-490 501 0
-501 502 0
-491 -501 0
-491 502 0
-502 503 0
-492 -502 0
-492 503 0
-503 504 0
-493 -503 0
-493 504 0
-494 -504 0
450 460 469 487 505 506 507 508 509 510 511 0
-450 512 0
-512 513 0
-460 -512 0
-460 513 0
-513 514 0
-469 -513 0
-469 514 0
-514 515 0
-487 -514 0
-487 515 0
-515 516 0
-505 -515 0
-505 516 0
-516 517 0
-506 -516 0
-506 517 0
-517 518 0
-507 -517 0
-507 518 0
-518 519 0
-508 -518 0
-508 519 0
-519 520 0
-509 -519 0
-509 520 0
-520 521 0
-510 -520 0
-510 521 0
-511 -521 0
451 461 470 488 505 522 523 524 525 526 527 0
-451 528 0
-528 529 0
-461 -528 0
-461 529 0
-529 530 0
-470 -529 0
-470 530 0
-530 531 0
-488 -530 0
-488 531 0
-531 532 0
-505 -531 0
-505 532 0
-532 533 0
-522 -532 0
-522 533 0
-533 534 0
-523 -533 0
-523 534 0
-534 535 0
-524 -534 0
-524 535 0
-535 536 0
-525 -535 0
-525 536 0
-536 537 0
-526 -536 0
-526 537 0
-527 -537 0
452 462 471 489 506 522 538 539 540 541 542 0
-452 543 0
-543 544 0
-462 -543 0
-462 544 0
-544 545 0
-471 -544 0
-471 545 0
-545 546 0
-489 -545 0
-489 546 0
-546 547 0
-506 -546 0
-506 547 0
-547 548 0
-522 -547 0
-522 548 0
-548 549 0
-538 -548 0
-538 549 0
-549 550 0
-539 -549 0
-539 550 0
-550 551 0
-540 -550 0
-540 551 0
-551 552 0
-541 -551 0
-541 552 0
-542 -552 0
453 463 472 490 507 523 538 553 554 555 556 0
-453 557 0
-557 558 0
-463 -557 0
-463 558 0
-558 559 0
-472 -558 0
-472 559 0
-559 560 0
-490 -559 0
-490 560 0
-560 561 0
-507 -560 0
-507 561 0
-561 562 0
-523 -561 0
-523 562 0
-562 563 0
-538 -562 0
-538 563 0
-563 564 0
-553 -563 0
-553 564 0
-564 565 0
-554 -564 0
-554 565 0
-565 566 0
-555 -565 0
-555 566 0
-556 -566 0
454 464 473 491 508 524 539 553 567 568 569 0
-454 570 0
-570 571 0
-464 -570 0
-464 571 0
-571 572 0
-473 -571 0
-473 572 0
-572 573 0
-491 -572 0
-491 573 0
-573 574 0
-508 -573 0
-508 574 0
-574 575 0
-524 -574 0
-524 575 0
-575 576 0
-539 -575 0
-539 576 0
-576 577 0
-553 -576 0
-553 577 0
-577 578 0
-567 -577 0
-567 578 0
-578 579 0
-568 -578 0
-568 579 0
-569 -579 0
455 465 474 492 509 525 540 554 567 580 581 0
-455 582 0
-582 583 0
-465 -582 0
-465 583 0
-583 584 0
-474 -583 0
-474 584 0
-584 585 0
-492 -584 0
-492 585 0
-585 586 0
-509 -585 0
-509 586 0
-586 587 0
-525 -586 0
-525 587 0
-587 588 0
-540 -587 0
-540 588 0
-588 589 0
-554 -588 0
-554 589 0
-589 590 0
-567 -589 0
-567 590 0
-590 591 0
-580 -590 0
-580 591 0
-581 -591 0
456 466 475 493 510 526 541 555 568 580 592 0
-456 593 0
-593 594 0
-466 -593 0
-466 594 0
-594 595 0
-475 -594 0
-475 595 0
-595 596 0
-493 -595 0
-493 596 0
-596 597 0
-510 -596 0
-510 597 0
-597 598 0
-526 -597 0
-526 598 0
-598 599 0
-541 -598 0
-541 599 0
-599 600 0
-555 -599 0
-555 600 0
-600 601 0
-568 -600 0
-568 601 0
-601 602 0
-580 -601 0
-580 602 0
-592 -602 0
457 467 476 494 511 527 542 556 569 581 592 0
-457 603 0
-603 604 0
-467 -603 0
-467 604 0
-604 605 0
-476 -604 0
-476 605 0
-605 606 0
-494 -605 0
-494 606 0
-606 607 0
-511 -606 0
-511 607 0
-607 608 0
-527 -607 0
-527 608 0
-608 609 0
-542 -608 0
-542 609 0
-609 610 0
-556 -609 0
-556 610 0
-610 611 0
-569 -610 0
-569 611 0
-611 612 0
-581 -611 0
-581 612 0
-592 -612 0
6 613 0
-613 614 0
52 -613 615 0
-615 616 0
72 -615 617 0
-617 618 0
75 -617 619 0
-619 620 0
87 -619 621 0
-621 622 0
94 -621 623 0
-623 624 0
136 -623 625 0
-625 626 0
141 -625 627 0
-627 628 0
143 -627 629 0
-629 630 0
299 -629 631 0
-631 632 0
300 -631 0
52 614 0
72 -614 616 0
75 -616 618 0
87 -618 620 0
94 -620 622 0
136 -622 624 0
141 -624 626 0
143 -626 628 0
299 -628 630 0
300 -630 632 0
342 -632 0
-6 633 0
-633 634 0
-52 -633 635 0
-635 636 0
-72 -635 0
-52 634 0
-634 637 0
-72 -634 636 0
-636 638 0
-75 -636 0
-72 637 0
-637 639 0
-75 -637 638 0
-638 640 0
-87 -638 0
-75 639 0
-639 641 0
-87 -639 640 0
-640 642 0
-94 -640 0
-87 641 0
-641 643 0
-94 -641 642 0
-642 644 0
-136 -642 0
-94 643 0
-643 645 0
-136 -643 644 0
-644 646 0
-141 -644 0
-136 645 0
-645 647 0
-141 -645 646 0
-646 648 0
-143 -646 0
-141 647 0
-647 649 0
-143 -647 648 0
-648 650 0
-299 -648 0
-143 649 0
-649 651 0
-299 -649 650 0
-650 652 0
-300 -650 0
-299 651 0
-300 -651 652 0
-342 -652 0
653 654 655 656 657 658 659 660 661 662 4 0
-653 663 0
-663 664 0
-654 -663 0
-654 664 0
-664 665 0
-655 -664 0
-655 665 0
-665 666 0
-656 -665 0
-656 666 0
-666 667 0
-657 -666 0
-657 667 0
-667 668 0
-658 -667 0
-658 668 0
-668 669 0
-659 -668 0
-659 669 0
-669 670 0
-660 -669 0
-660 670 0
-670 671 0
-661 -670 0
-661 671 0
-671 672 0
-662 -671 0
-662 672 0
-4 -672 0
653 673 674 675 676 677 678 679 680 681 11 0
-653 682 0
-682 683 0
-673 -682 0
-673 683 0
-683 684 0
-674 -683 0
-674 684 0
-684 685 0
-675 -684 0
-675 685 0
-685 686 0
-676 -685 0
-676 686 0
-686 687 0
-677 -686 0
-677 687 0
-687 688 0
-678 -687 0
-678 688 0
-688 689 0
-679 -688 0
-679 689 0
-689 690 0
-680 -689 0
-680 690 0
-690 691 0
-681 -690 0
-681 691 0
-11 -691 0
-654 0
-673 0
-692 0
-693 0
-694 0
-695 0
-696 0
-697 0
-698 0
-699 0
-49 0
655 674 692 700 701 702 703 704 705 706 72 0
-655 707 0
-707 708 0
-674 -707 0
-674 708 0
-708 709 0
-692 -708 0
-692 709 0
-709 710 0
-700 -709 0
-700 710 0
-710 711 0
-701 -710 0
-701 711 0
-711 712 0
-702 -711 0
-702 712 0
-712 713 0
-703 -712 0
-703 713 0
-713 714 0
-704 -713 0
-704 714 0
-714 715 0
-705 -714 0
-705 715 0
-715 716 0
-706 -715 0
-706 716 0
-72 -716 0
656 675 693 700 717 718 719 720 721 722 74 0
-656 723 0
-723 724 0
-675 -723 0
-675 724 0
-724 725 0
-693 -724 0
-693 725 0
-725 726 0
-700 -725 0
-700 726 0
-726 727 0
-717 -726 0
-717 727 0
-727 728 0
-718 -727 0
-718 728 0
-728 729 0
-719 -728 0
-719 729 0
-729 730 0
-720 -729 0
-720 730 0
-730 731 0
-721 -730 0
-721 731 0
-731 732 0
-722 -731 0
-722 732 0
-74 -732 0
657 676 694 701 717 733 734 735 736 737 89 0
-657 738 0
-738 739 0
-676 -738 0
-676 739 0
-739 740 0
-694 -739 0
-694 740 0
-740 741 0
-701 -740 0
-701 741 0
-741 742 0
-717 -741 0
-717 742 0
-742 743 0
-733 -742 0
-733 743 0
-743 744 0
-734 -743 0
-734 744 0
-744 745 0
-735 -744 0
-735 745 0
-745 746 0
-736 -745 0
-736 746 0
-746 747 0
-737 -746 0
-737 747 0
-89 -747 0
-658 0
-677 0
-695 0
-702 0
-718 0
-733 0
-748 0
-749 0
-750 0
-751 0
-137 0
659 678 696 703 719 734 748 752 753 754 146 0
-659 755 0
-755 756 0
-678 -755 0
-678 756 0
-756 757 0
-696 -756 0
-696 757 0
-757 758 0
-703 -757 0
-703 758 0
-758 759 0
-719 -758 0
-719 759 0
-759 760 0
-734 -759 0
-734 760 0
-760 761 0
-748 -760 0
-748 761 0
-761 762 0
-752 -761 0
-752 762 0
-762 763 0
-753 -762 0
-753 763 0
-763 764 0
-754 -763 0
-754 764 0
-146 -764 0
660 679 697 704 720 735 749 752 765 766 192 0
-660 767 0
-767 768 0
-679 -767 0
-679 768 0
-768 769 0
-697 -768 0
-697 769 0
-769 770 0
-704 -769 0
-704 770 0
-770 771 0
-720 -770 0
-720 771 0
-771 772 0
-735 -771 0
-735 772 0
-772 773 0
-749 -772 0
-749 773 0
-773 774 0
-752 -773 0
-752 774 0
-774 775 0
-765 -774 0
-765 775 0
-775 776 0
-766 -775 0
-766 776 0
-192 -776 0
661 680 698 705 721 736 750 753 765 777 195 0
-661 778 0
-778 779 0
-680 -778 0
-680 779 0
-779 780 0
-698 -779 0
-698 780 0
-780 781 0
-705 -780 0
-705 781 0
-781 782 0
-721 -781 0
-721 782 0
-782 783 0
-736 -782 0
-736 783 0
-783 784 0
-750 -783 0
-750 784 0
-784 785 0
-753 -784 0
-753 785 0
-785 786 0
-765 -785 0
-765 786 0
-786 787 0
-777 -786 0
-777 787 0
-195 -787 0
662 681 699 706 722 737 751 754 766 777 254 0
-662 788 0
-788 789 0
-681 -788 0
-681 789 0
-789 790 0
-699 -789 0
-699 790 0
-790 791 0
-706 -790 0
-706 791 0
-791 792 0
-722 -791 0
-722 792 0
-792 793 0
-737 -792 0
-737 793 0
-793 794 0
-751 -793 0
-751 794 0
-794 795 0
-754 -794 0
-754 795 0
-795 796 0
-766 -795 0
-766 796 0
-796 797 0
-777 -796 0
-777 797 0
-254 -797 0
4 11 49 72 74 89 137 146 192 195 254 0
-4 798 0
-798 799 0
-11 -798 0
-11 799 0
-799 800 0
-49 -799 0
-49 800 0
-800 801 0
-72 -800 0
-72 801 0
-801 802 0
-74 -801 0
-74 802 0
-802 803 0
-89 -802 0
-89 803 0
-803 804 0
-137 -803 0
-137 804 0
-804 805 0
-146 -804 0
-146 805 0
-805 806 0
-192 -805 0
-192 806 0
-806 807 0
-195 -806 0
-195 807 0
-254 -807 0
808 809 810 811 812 813 814 815 816 456 6 0
-808 817 0
-817 818 0
-809 -817 0
-809 818 0
-818 819 0
-810 -818 0
-810 819 0
-819 820 0
-811 -819 0
-811 820 0
-820 821 0
-812 -820 0
-812 821 0
-821 822 0
-813 -821 0
-813 822 0
-822 823 0
-814 -822 0
-814 823 0
-823 824 0
-815 -823 0
-815 824 0
-824 825 0
-816 -824 0
-816 825 0
-825 826 0
-456 -825 0
-456 826 0
-6 -826 0
808 827 828 829 830 831 832 833 834 835 8 0
-808 836 0
-836 837 0
-827 -836 0
-827 837 0
-837 838 0
-828 -837 0
-828 838 0
-838 839 0
-829 -838 0
-829 839 0
-839 840 0
-830 -839 0
-830 840 0
-840 841 0
-831 -840 0
-831 841 0
-841 842 0
-832 -841 0
-832 842 0
-842 843 0
-833 -842 0
-833 843 0
-843 844 0
-834 -843 0
-834 844 0
-844 845 0
-835 -844 0
-835 845 0
-8 -845 0
809 827 846 847 848 849 850 851 852 853 51 0
-809 854 0
-854 855 0
-827 -854 0
-827 855 0
-855 856 0
-846 -855 0
-846 856 0
-856 857 0
-847 -856 0
-847 857 0
-857 858 0
-848 -857 0
-848 858 0
-858 859 0
-849 -858 0
-849 859 0
-859 860 0
-850 -859 0
-850 860 0
-860 861 0
-851 -860 0
-851 861 0
-861 862 0
-852 -861 0
-852 862 0
-862 863 0
-853 -862 0
-853 863 0
-51 -863 0
810 828 846 864 865 866 867 868 869 870 56 0
-810 871 0
-871 872 0
-828 -871 0
-828 872 0
-872 873 0
-846 -872 0
-846 873 0
-873 874 0
-864 -873 0
-864 874 0
-874 875 0
-865 -874 0
-865 875 0
-875 876 0
-866 -875 0
-866 876 0
-876 877 0
-867 -876 0
-867 877 0
-877 878 0
-868 -877 0
-868 878 0
-878 879 0
-869 -878 0
-869 879 0
-879 880 0
-870 -879 0
-870 880 0
-56 -880 0
-811 0
-829 0
-847 0
-864 0
-881 0
-882 0
-883 0
-884 0
-885 0
-886 0
-69 0
-812 0
-830 0
-848 0
-865 0
-881 0
-887 0
-888 0
-889 0
-890 0
-891 0
-86 0
813 831 849 866 882 887 892 893 894 895 90 0
-813 896 0
-896 897 0
-831 -896 0
-831 897 0
-897 898 0
-849 -897 0
-849 898 0
-898 899 0
-866 -898 0
-866 899 0
-899 900 0
-882 -899 0
-882 900 0
-900 901 0
-887 -900 0
-887 901 0
-901 902 0
-892 -901 0
-892 902 0
-902 903 0
-893 -902 0
-893 903 0
-903 904 0
-894 -903 0
-894 904 0
-904 905 0
-895 -904 0
-895 905 0
-90 -905 0
814 832 850 867 883 888 892 906 907 908 144 0
-814 909 0
-909 910 0
-832 -909 0
-832 910 0
-910 911 0
-850 -910 0
-850 911 0
-911 912 0
-867 -911 0
-867 912 0
-912 913 0
-883 -912 0
-883 913 0
-913 914 0
-888 -913 0
-888 914 0
-914 915 0
-892 -914 0
-892 915 0
-915 916 0
-906 -915 0
-906 916 0
-916 917 0
-907 -916 0
-907 917 0
-917 918 0
-908 -917 0
-908 918 0
-144 -918 0
815 833 851 868 884 889 893 906 919 920 149 0
-815 921 0
-921 922 0
-833 -921 0
-833 922 0
-922 923 0
-851 -922 0
-851 923 0
-923 924 0
-868 -923 0
-868 924 0
-924 925 0
-884 -924 0
-884 925 0
-925 926 0
-889 -925 0
-889 926 0
-926 927 0
-893 -926 0
-893 927 0
-927 928 0
-906 -927 0
-906 928 0
-928 929 0
-919 -928 0
-919 929 0
-929 930 0
-920 -929 0
-920 930 0
-149 -930 0
816 834 852 869 885 890 894 907 919 931 209 0
-816 932 0
-932 933 0
-834 -932 0
-834 933 0
-933 934 0
-852 -933 0
-852 934 0
-934 935 0
-869 -934 0
-869 935 0
-935 936 0
-885 -935 0
-885 936 0
-936 937 0
-890 -936 0
-890 937 0
-937 938 0
-894 -937 0
-894 938 0
-938 939 0
-907 -938 0
-907 939 0
-939 940 0
-919 -939 0
-919 940 0
-940 941 0
-931 -940 0
-931 941 0
-209 -941 0
456 835 853 870 886 891 895 908 920 931 300 0
-456 942 0
-942 943 0
-835 -942 0
-835 943 0
-943 944 0
-853 -943 0
-853 944 0
-944 945 0
-870 -944 0
-870 945 0
-945 946 0
-886 -945 0
-886 946 0
-946 947 0
-891 -946 0
-891 947 0
-947 948 0
-895 -947 0
-895 948 0
-948 949 0
-908 -948 0
-908 949 0
-949 950 0
-920 -949 0
-920 950 0
-950 951 0
-931 -950 0
-931 951 0
-300 -951 0
6 8 51 56 69 86 90 144 149 209 300 0
-6 952 0
-952 953 0
-8 -952 0
-8 953 0
-953 954 0
-51 -953 0
-51 954 0
-954 955 0
-56 -954 0
-56 955 0
-955 956 0
-69 -955 0
-69 956 0
-956 957 0
-86 -956 0
-86 957 0
-957 958 0
-90 -957 0
-90 958 0
-958 959 0
-144 -958 0
-144 959 0
-959 960 0
-149 -959 0
-149 960 0
-960 961 0
-209 -960 0
-209 961 0
-300 -961 0
