p cnf 1430 2867
-1 0
-2 0
-3 0
-4 0
-5 0
-6 0
-7 0
-8 0
-9 0
-10 0
-11 0
-12 0
-13 0
-14 0
-15 0
-16 0
6 27 0
-27 28 0
17 -27 29 0
-29 30 0
18 -29 31 0
-31 32 0
19 -31 33 0
-33 34 0
20 -33 35 0
-35 36 0
21 -35 37 0
-37 38 0
22 -37 39 0
-39 40 0
23 -39 41 0
-41 42 0
24 -41 43 0
-43 44 0
25 -43 0
17 28 0
18 -28 30 0
19 -30 32 0
20 -32 34 0
21 -34 36 0
22 -36 38 0
23 -38 40 0
24 -40 42 0
25 -42 44 0
26 -44 0
-6 45 0
-45 46 0
-17 -45 47 0
-47 48 0
-18 -47 0
-17 46 0
-46 49 0
-18 -46 48 0
-48 50 0
-19 -48 0
-18 49 0
-49 51 0
-19 -49 50 0
-50 52 0
-20 -50 0
-19 51 0
-51 53 0
-20 -51 52 0
-52 54 0
-21 -52 0
-20 53 0
-53 55 0
-21 -53 54 0
-54 56 0
-22 -54 0
-21 55 0
-55 57 0
-22 -55 56 0
-56 58 0
-23 -56 0
-22 57 0
-57 59 0
-23 -57 58 0
-58 60 0
-24 -58 0
-23 59 0
-59 61 0
-24 -59 60 0
-60 62 0
-25 -60 0
-24 61 0
-25 -61 62 0
-26 -62 0
7 72 0
-72 73 0
17 -72 74 0
-74 75 0
63 -74 76 0
-76 77 0
64 -76 78 0
-78 79 0
65 -78 80 0
-80 81 0
66 -80 82 0
-82 83 0
67 -82 84 0
-84 85 0
68 -84 86 0
-86 87 0
69 -86 88 0
-88 89 0
70 -88 0
17 73 0
63 -73 75 0
64 -75 77 0
65 -77 79 0
66 -79 81 0
67 -81 83 0
68 -83 85 0
69 -85 87 0
70 -87 89 0
71 -89 0
-7 90 0
-90 91 0
-17 -90 92 0
-92 93 0
-63 -92 0
-17 91 0
-91 94 0
-63 -91 93 0
-93 95 0
-64 -93 0
-63 94 0
-94 96 0
-64 -94 95 0
-95 97 0
-65 -95 0
-64 96 0
-96 98 0
-65 -96 97 0
-97 99 0
-66 -97 0
-65 98 0
-98 100 0
-66 -98 99 0
-99 101 0
-67 -99 0
-66 100 0
-100 102 0
-67 -100 101 0
-101 103 0
-68 -101 0
-67 102 0
-102 104 0
-68 -102 103 0
-103 105 0
-69 -103 0
-68 104 0
-104 106 0
-69 -104 105 0
-105 107 0
-70 -105 0
-69 106 0
-70 -106 107 0
-71 -107 0
8 116 0
-116 117 0
18 -116 118 0
-118 119 0
63 -118 120 0
-120 121 0
108 -120 122 0
-122 123 0
109 -122 124 0
-124 125 0
110 -124 126 0
-126 127 0
111 -126 128 0
-128 129 0
112 -128 130 0
-130 131 0
113 -130 132 0
-132 133 0
114 -132 0
18 117 0
63 -117 119 0
108 -119 121 0
109 -121 123 0
110 -123 125 0
111 -125 127 0
112 -127 129 0
113 -129 131 0
114 -131 133 0
115 -133 0
-8 134 0
-134 135 0
-18 -134 136 0
-136 137 0
-63 -136 0
-18 135 0
-135 138 0
-63 -135 137 0
-137 139 0
-108 -137 0
-63 138 0
-138 140 0
-108 -138 139 0
-139 141 0
-109 -139 0
-108 140 0
-140 142 0
-109 -140 141 0
-141 143 0
-110 -141 0
-109 142 0
-142 144 0
-110 -142 143 0
-143 145 0
-111 -143 0
-110 144 0
-144 146 0
-111 -144 145 0
-145 147 0
-112 -145 0
-111 146 0
-146 148 0
-112 -146 147 0
-147 149 0
-113 -147 0
-112 148 0
-148 150 0
-113 -148 149 0
-149 151 0
-114 -149 0
-113 150 0
-114 -150 151 0
-115 -151 0
9 159 0
-159 160 0
19 -159 161 0
-161 162 0
64 -161 163 0
-163 164 0
108 -163 165 0
-165 166 0
152 -165 167 0
-167 168 0
153 -167 169 0
-169 170 0
154 -169 171 0
-171 172 0
155 -171 173 0
-173 174 0
156 -173 175 0
-175 176 0
157 -175 0
19 160 0
64 -160 162 0
108 -162 164 0
152 -164 166 0
153 -166 168 0
154 -168 170 0
155 -170 172 0
156 -172 174 0
157 -174 176 0
158 -176 0
-9 177 0
-177 178 0
-19 -177 179 0
-179 180 0
-64 -179 0
-19 178 0
-178 181 0
-64 -178 180 0
-180 182 0
-108 -180 0
-64 181 0
-181 183 0
-108 -181 182 0
-182 184 0
-152 -182 0
-108 183 0
-183 185 0
-152 -183 184 0
-184 186 0
-153 -184 0
-152 185 0
-185 187 0
-153 -185 186 0
-186 188 0
-154 -186 0
-153 187 0
-187 189 0
-154 -187 188 0
-188 190 0
-155 -188 0
-154 189 0
-189 191 0
-155 -189 190 0
-190 192 0
-156 -190 0
-155 191 0
-191 193 0
-156 -191 192 0
-192 194 0
-157 -192 0
-156 193 0
-157 -193 194 0
-158 -194 0
10 201 0
-201 202 0
20 -201 203 0
-203 204 0
65 -203 205 0
-205 206 0
109 -205 207 0
-207 208 0
152 -207 209 0
-209 210 0
195 -209 211 0
-211 212 0
196 -211 213 0
-213 214 0
197 -213 215 0
-215 216 0
198 -215 217 0
-217 218 0
199 -217 0
20 202 0
65 -202 204 0
109 -204 206 0
152 -206 208 0
195 -208 210 0
196 -210 212 0
197 -212 214 0
198 -214 216 0
199 -216 218 0
200 -218 0
-10 219 0
-219 220 0
-20 -219 221 0
-221 222 0
-65 -221 0
-20 220 0
-220 223 0
-65 -220 222 0
-222 224 0
-109 -222 0
-65 223 0
-223 225 0
-109 -223 224 0
-224 226 0
-152 -224 0
-109 225 0
-225 227 0
-152 -225 226 0
-226 228 0
-195 -226 0
-152 227 0
-227 229 0
-195 -227 228 0
-228 230 0
-196 -228 0
-195 229 0
-229 231 0
-196 -229 230 0
-230 232 0
-197 -230 0
-196 231 0
-231 233 0
-197 -231 232 0
-232 234 0
-198 -232 0
-197 233 0
-233 235 0
-198 -233 234 0
-234 236 0
-199 -234 0
-198 235 0
-199 -235 236 0
-200 -236 0
11 21 66 110 153 195 237 238 239 240 241 242 0
-11 243 0
-243 244 0
-21 -243 0
-21 244 0
-244 245 0
-66 -244 0
-66 245 0
-245 246 0
-110 -245 0
-110 246 0
-246 247 0
-153 -246 0
-153 247 0
-247 248 0
-195 -247 0
-195 248 0
-248 249 0
-237 -248 0
-237 249 0
-249 250 0
-238 -249 0
-238 250 0
-250 251 0
-239 -250 0
-239 251 0
-251 252 0
-240 -251 0
-240 252 0
-252 253 0
-241 -252 0
-241 253 0
-242 -253 0
22 67 111 154 196 237 254 255 256 257 258 0
-22 259 0
-259 260 0
-67 -259 0
-67 260 0
-260 261 0
-111 -260 0
-111 261 0
-261 262 0
-154 -261 0
-154 262 0
-262 263 0
-196 -262 0
-196 263 0
-263 264 0
-237 -263 0
-237 264 0
-264 265 0
-254 -264 0
-254 265 0
-265 266 0
-255 -265 0
-255 266 0
-266 267 0
-256 -266 0
-256 267 0
-267 268 0
-257 -267 0
-257 268 0
-258 -268 0
1 273 0
-273 274 0
12 -273 275 0
-275 276 0
68 -275 277 0
-277 278 0
112 -277 279 0
-279 280 0
155 -279 281 0
-281 282 0
197 -281 283 0
-283 284 0
238 -283 285 0
-285 286 0
254 -285 287 0
-287 288 0
269 -287 289 0
-289 290 0
270 -289 291 0
-291 292 0
271 -291 0
12 274 0
68 -274 276 0
112 -276 278 0
155 -278 280 0
197 -280 282 0
238 -282 284 0
254 -284 286 0
269 -286 288 0
270 -288 290 0
271 -290 292 0
272 -292 0
-1 293 0
-293 294 0
-12 -293 295 0
-295 296 0
-68 -295 0
-12 294 0
-294 297 0
-68 -294 296 0
-296 298 0
-112 -296 0
-68 297 0
-297 299 0
-112 -297 298 0
-298 300 0
-155 -298 0
-112 299 0
-299 301 0
-155 -299 300 0
-300 302 0
-197 -300 0
-155 301 0
-301 303 0
-197 -301 302 0
-302 304 0
-238 -302 0
-197 303 0
-303 305 0
-238 -303 304 0
-304 306 0
-254 -304 0
-238 305 0
-305 307 0
-254 -305 306 0
-306 308 0
-269 -306 0
-254 307 0
-307 309 0
-269 -307 308 0
-308 310 0
-270 -308 0
-269 309 0
-309 311 0
-270 -309 310 0
-310 312 0
-271 -310 0
-270 311 0
-271 -311 312 0
-272 -312 0
2 316 0
-316 317 0
13 -316 318 0
-318 319 0
23 -318 320 0
-320 321 0
113 -320 322 0
-322 323 0
156 -322 324 0
-324 325 0
198 -324 326 0
-326 327 0
239 -326 328 0
-328 329 0
255 -328 330 0
-330 331 0
269 -330 332 0
-332 333 0
313 -332 334 0
-334 335 0
314 -334 0
13 317 0
23 -317 319 0
113 -319 321 0
156 -321 323 0
198 -323 325 0
239 -325 327 0
255 -327 329 0
269 -329 331 0
313 -331 333 0
314 -333 335 0
315 -335 0
-2 336 0
-336 337 0
-13 -336 338 0
-338 339 0
-23 -338 0
-13 337 0
-337 340 0
-23 -337 339 0
-339 341 0
-113 -339 0
-23 340 0
-340 342 0
-113 -340 341 0
-341 343 0
-156 -341 0
-113 342 0
-342 344 0
-156 -342 343 0
-343 345 0
-198 -343 0
-156 344 0
-344 346 0
-198 -344 345 0
-345 347 0
-239 -345 0
-198 346 0
-346 348 0
-239 -346 347 0
-347 349 0
-255 -347 0
-239 348 0
-348 350 0
-255 -348 349 0
-349 351 0
-269 -349 0
-255 350 0
-350 352 0
-269 -350 351 0
-351 353 0
-313 -351 0
-269 352 0
-352 354 0
-313 -352 353 0
-353 355 0
-314 -353 0
-313 354 0
-314 -354 355 0
-315 -355 0
3 358 0
-358 359 0
14 -358 360 0
-360 361 0
24 -360 362 0
-362 363 0
69 -362 364 0
-364 365 0
157 -364 366 0
-366 367 0
199 -366 368 0
-368 369 0
240 -368 370 0
-370 371 0
256 -370 372 0
-372 373 0
270 -372 374 0
-374 375 0
313 -374 376 0
-376 377 0
356 -376 0
14 359 0
24 -359 361 0
69 -361 363 0
157 -363 365 0
199 -365 367 0
240 -367 369 0
256 -369 371 0
270 -371 373 0
313 -373 375 0
356 -375 377 0
357 -377 0
-3 378 0
-378 379 0
-14 -378 380 0
-380 381 0
-24 -380 0
-14 379 0
-379 382 0
-24 -379 381 0
-381 383 0
-69 -381 0
-24 382 0
-382 384 0
-69 -382 383 0
-383 385 0
-157 -383 0
-69 384 0
-384 386 0
-157 -384 385 0
-385 387 0
-199 -385 0
-157 386 0
-386 388 0
-199 -386 387 0
-387 389 0
-240 -387 0
-199 388 0
-388 390 0
-240 -388 389 0
-389 391 0
-256 -389 0
-240 390 0
-390 392 0
-256 -390 391 0
-391 393 0
-270 -391 0
-256 392 0
-392 394 0
-270 -392 393 0
-393 395 0
-313 -393 0
-270 394 0
-394 396 0
-313 -394 395 0
-395 397 0
-356 -395 0
-313 396 0
-356 -396 397 0
-357 -397 0
4 399 0
-399 400 0
15 -399 401 0
-401 402 0
25 -401 403 0
-403 404 0
70 -403 405 0
-405 406 0
114 -405 407 0
-407 408 0
200 -407 409 0
-409 410 0
241 -409 411 0
-411 412 0
257 -411 413 0
-413 414 0
271 -413 415 0
-415 416 0
314 -415 417 0
-417 418 0
356 -417 0
15 400 0
25 -400 402 0
70 -402 404 0
114 -404 406 0
200 -406 408 0
241 -408 410 0
257 -410 412 0
271 -412 414 0
314 -414 416 0
356 -416 418 0
398 -418 0
-4 419 0
-419 420 0
-15 -419 421 0
-421 422 0
-25 -421 0
-15 420 0
-420 423 0
-25 -420 422 0
-422 424 0
-70 -422 0
-25 423 0
-423 425 0
-70 -423 424 0
-424 426 0
-114 -424 0
-70 425 0
-425 427 0
-114 -425 426 0
-426 428 0
-200 -426 0
-114 427 0
-427 429 0
-200 -427 428 0
-428 430 0
-241 -428 0
-200 429 0
-429 431 0
-241 -429 430 0
-430 432 0
-257 -430 0
-241 431 0
-431 433 0
-257 -431 432 0
-432 434 0
-271 -432 0
-257 433 0
-433 435 0
-271 -433 434 0
-434 436 0
-314 -434 0
-271 435 0
-435 437 0
-314 -435 436 0
-436 438 0
-356 -436 0
-314 437 0
-356 -437 438 0
-398 -438 0
5 439 0
-439 440 0
16 -439 441 0
-441 442 0
26 -441 443 0
-443 444 0
71 -443 445 0
-445 446 0
115 -445 447 0
-447 448 0
158 -447 449 0
-449 450 0
242 -449 451 0
-451 452 0
258 -451 453 0
-453 454 0
272 -453 455 0
-455 456 0
315 -455 457 0
-457 458 0
357 -457 0
16 440 0
26 -440 442 0
71 -442 444 0
115 -444 446 0
158 -446 448 0
242 -448 450 0
258 -450 452 0
272 -452 454 0
315 -454 456 0
357 -456 458 0
398 -458 0
-5 459 0
-459 460 0
-16 -459 461 0
-461 462 0
-26 -461 0
-16 460 0
-460 463 0
-26 -460 462 0
-462 464 0
-71 -462 0
-26 463 0
-463 465 0
-71 -463 464 0
-464 466 0
-115 -464 0
-71 465 0
-465 467 0
-115 -465 466 0
-466 468 0
-158 -466 0
-115 467 0
-467 469 0
-158 -467 468 0
-468 470 0
-242 -468 0
-158 469 0
-469 471 0
-242 -469 470 0
-470 472 0
-258 -470 0
-242 471 0
-471 473 0
-258 -471 472 0
-472 474 0
-272 -472 0
-258 473 0
-473 475 0
-272 -473 474 0
-474 476 0
-315 -474 0
-272 475 0
-475 477 0
-315 -475 476 0
-476 478 0
-357 -476 0
-315 477 0
-357 -477 478 0
-398 -478 0
-11 0
-23 0
-26 0
-64 0
-71 0
-109 0
-114 0
-152 0
-270 0
-271 0
-313 0
-11 0
-479 0
-480 0
-481 0
-482 0
-483 0
-484 0
-485 0
-486 0
-487 0
-488 0
23 479 489 490 491 492 493 494 495 496 497 0
-23 498 0
-498 499 0
-479 -498 0
-479 499 0
-499 500 0
-489 -499 0
-489 500 0
-500 501 0
-490 -500 0
-490 501 0
-501 502 0
-491 -501 0
-491 502 0
-502 503 0
-492 -502 0
-492 503 0
-503 504 0
-493 -503 0
-493 504 0
-504 505 0
-494 -504 0
-494 505 0
-505 506 0
-495 -505 0
-495 506 0
-506 507 0
-496 -506 0
-496 507 0
-497 -507 0
26 480 489 508 509 510 511 512 513 514 515 0
-26 516 0
-516 517 0
-480 -516 0
-480 517 0
-517 518 0
-489 -517 0
-489 518 0
-518 519 0
-508 -518 0
-508 519 0
-519 520 0
-509 -519 0
-509 520 0
-520 521 0
-510 -520 0
-510 521 0
-521 522 0
-511 -521 0
-511 522 0
-522 523 0
-512 -522 0
-512 523 0
-523 524 0
-513 -523 0
-513 524 0
-524 525 0
-514 -524 0
-514 525 0
-515 -525 0
64 481 490 508 526 527 528 529 530 531 532 0
-64 533 0
-533 534 0
-481 -533 0
-481 534 0
-534 535 0
-490 -534 0
-490 535 0
-535 536 0
-508 -535 0
-508 536 0
-536 537 0
-526 -536 0
-526 537 0
-537 538 0
-527 -537 0
-527 538 0
-538 539 0
-528 -538 0
-528 539 0
-539 540 0
-529 -539 0
-529 540 0
-540 541 0
-530 -540 0
-530 541 0
-541 542 0
-531 -541 0
-531 542 0
-532 -542 0
71 482 491 509 526 543 544 545 546 547 548 0
-71 549 0
-549 550 0
-482 -549 0
-482 550 0
-550 551 0
-491 -550 0
-491 551 0
-551 552 0
-509 -551 0
-509 552 0
-552 553 0
-526 -552 0
-526 553 0
-553 554 0
-543 -553 0
-543 554 0
-554 555 0
-544 -554 0
-544 555 0
-555 556 0
-545 -555 0
-545 556 0
-556 557 0
-546 -556 0
-546 557 0
-557 558 0
-547 -557 0
-547 558 0
-548 -558 0
109 483 492 510 527 543 559 560 561 562 563 0
-109 564 0
-564 565 0
-483 -564 0
-483 565 0
-565 566 0
-492 -565 0
-492 566 0
-566 567 0
-510 -566 0
-510 567 0
-567 568 0
-527 -567 0
-527 568 0
-568 569 0
-543 -568 0
-543 569 0
-569 570 0
-559 -569 0
-559 570 0
-570 571 0
-560 -570 0
-560 571 0
-571 572 0
-561 -571 0
-561 572 0
-572 573 0
-562 -572 0
-562 573 0
-563 -573 0
114 484 493 511 528 544 559 574 575 576 577 0
-114 578 0
-578 579 0
-484 -578 0
-484 579 0
-579 580 0
-493 -579 0
-493 580 0
-580 581 0
-511 -580 0
-511 581 0
-581 582 0
-528 -581 0
-528 582 0
-582 583 0
-544 -582 0
-544 583 0
-583 584 0
-559 -583 0
-559 584 0
-584 585 0
-574 -584 0
-574 585 0
-585 586 0
-575 -585 0
-575 586 0
-586 587 0
-576 -586 0
-576 587 0
-577 -587 0
152 485 494 512 529 545 560 574 588 589 590 0
-152 591 0
-591 592 0
-485 -591 0
-485 592 0
-592 593 0
-494 -592 0
-494 593 0
-593 594 0
-512 -593 0
-512 594 0
-594 595 0
-529 -594 0
-529 595 0
-595 596 0
-545 -595 0
-545 596 0
-596 597 0
-560 -596 0
-560 597 0
-597 598 0
-574 -597 0
-574 598 0
-598 599 0
-588 -598 0
-588 599 0
-599 600 0
-589 -599 0
-589 600 0
-590 -600 0
270 486 495 513 530 546 561 575 588 601 602 0
-270 603 0
-603 604 0
-486 -603 0
-486 604 0
-604 605 0
-495 -604 0
-495 605 0
-605 606 0
-513 -605 0
-513 606 0
-606 607 0
-530 -606 0
-530 607 0
-607 608 0
-546 -607 0
-546 608 0
-608 609 0
-561 -608 0
-561 609 0
-609 610 0
-575 -609 0
-575 610 0
-610 611 0
-588 -610 0
-588 611 0
-611 612 0
-601 -611 0
-601 612 0
-602 -612 0
271 487 496 514 531 547 562 576 589 601 613 0
-271 614 0
-614 615 0
-487 -614 0
-487 615 0
-615 616 0
-496 -615 0
-496 616 0
-616 617 0
-514 -616 0
-514 617 0
-617 618 0
-531 -617 0
-531 618 0
-618 619 0
-547 -618 0
-547 619 0
-619 620 0
-562 -619 0
-562 620 0
-620 621 0
-576 -620 0
-576 621 0
-621 622 0
-589 -621 0
-589 622 0
-622 623 0
-601 -622 0
-601 623 0
-613 -623 0
313 488 497 515 532 548 563 577 590 602 613 0
-313 624 0
-624 625 0
-488 -624 0
-488 625 0
-625 626 0
-497 -625 0
-497 626 0
-626 627 0
-515 -626 0
-515 627 0
-627 628 0
-532 -627 0
-532 628 0
-628 629 0
-548 -628 0
-548 629 0
-629 630 0
-563 -629 0
-563 630 0
-630 631 0
-577 -630 0
-577 631 0
-631 632 0
-590 -631 0
-590 632 0
-632 633 0
-602 -632 0
-602 633 0
-613 -633 0
9 11 19 65 69 113 200 254 258 314 357 0
-9 634 0
-634 635 0
-11 -634 0
-11 635 0
-635 636 0
-19 -635 0
-19 636 0
-636 637 0
-65 -636 0
-65 637 0
-637 638 0
-69 -637 0
-69 638 0
-638 639 0
-113 -638 0
-113 639 0
-639 640 0
-200 -639 0
-200 640 0
-640 641 0
-254 -640 0
-254 641 0
-641 642 0
-258 -641 0
-258 642 0
-642 643 0
-314 -642 0
-314 643 0
-357 -643 0
644 645 646 647 648 649 650 651 652 653 0
-644 654 0
-654 655 0
-645 -654 0
-645 655 0
-655 656 0
-646 -655 0
-646 656 0
-656 657 0
-647 -656 0
-647 657 0
-657 658 0
-648 -657 0
-648 658 0
-658 659 0
-649 -658 0
-649 659 0
-659 660 0
-650 -659 0
-650 660 0
-660 661 0
-651 -660 0
-651 661 0
-661 662 0
-652 -661 0
-652 662 0
-653 -662 0
644 663 664 665 666 667 668 669 670 671 0
-644 672 0
-672 673 0
-663 -672 0
-663 673 0
-673 674 0
-664 -673 0
-664 674 0
-674 675 0
-665 -674 0
-665 675 0
-675 676 0
-666 -675 0
-666 676 0
-676 677 0
-667 -676 0
-667 677 0
-677 678 0
-668 -677 0
-668 678 0
-678 679 0
-669 -678 0
-669 679 0
-679 680 0
-670 -679 0
-670 680 0
-671 -680 0
-645 0
-663 0
-681 0
-682 0
-683 0
-684 0
-685 0
-686 0
-687 0
-688 0
646 664 681 689 690 691 692 693 694 695 0
-646 696 0
-696 697 0
-664 -696 0
-664 697 0
-697 698 0
-681 -697 0
-681 698 0
-698 699 0
-689 -698 0
-689 699 0
-699 700 0
-690 -699 0
-690 700 0
-700 701 0
-691 -700 0
-691 701 0
-701 702 0
-692 -701 0
-692 702 0
-702 703 0
-693 -702 0
-693 703 0
-703 704 0
-694 -703 0
-694 704 0
-695 -704 0
647 665 682 689 705 706 707 708 709 710 0
-647 711 0
-711 712 0
-665 -711 0
-665 712 0
-712 713 0
-682 -712 0
-682 713 0
-713 714 0
-689 -713 0
-689 714 0
-714 715 0
-705 -714 0
-705 715 0
-715 716 0
-706 -715 0
-706 716 0
-716 717 0
-707 -716 0
-707 717 0
-717 718 0
-708 -717 0
-708 718 0
-718 719 0
-709 -718 0
-709 719 0
-710 -719 0
648 666 683 690 705 720 721 722 723 724 0
-648 725 0
-725 726 0
-666 -725 0
-666 726 0
-726 727 0
-683 -726 0
-683 727 0
-727 728 0
-690 -727 0
-690 728 0
-728 729 0
-705 -728 0
-705 729 0
-729 730 0
-720 -729 0
-720 730 0
-730 731 0
-721 -730 0
-721 731 0
-731 732 0
-722 -731 0
-722 732 0
-732 733 0
-723 -732 0
-723 733 0
-724 -733 0
649 667 684 691 706 720 734 735 736 737 0
-649 738 0
-738 739 0
-667 -738 0
-667 739 0
-739 740 0
-684 -739 0
-684 740 0
-740 741 0
-691 -740 0
-691 741 0
-741 742 0
-706 -741 0
-706 742 0
-742 743 0
-720 -742 0
-720 743 0
-743 744 0
-734 -743 0
-734 744 0
-744 745 0
-735 -744 0
-735 745 0
-745 746 0
-736 -745 0
-736 746 0
-737 -746 0
650 668 685 692 707 721 734 747 748 749 0
-650 750 0
-750 751 0
-668 -750 0
-668 751 0
-751 752 0
-685 -751 0
-685 752 0
-752 753 0
-692 -752 0
-692 753 0
-753 754 0
-707 -753 0
-707 754 0
-754 755 0
-721 -754 0
-721 755 0
-755 756 0
-734 -755 0
-734 756 0
-756 757 0
-747 -756 0
-747 757 0
-757 758 0
-748 -757 0
-748 758 0
-749 -758 0
651 669 686 693 708 722 735 747 759 760 0
-651 761 0
-761 762 0
-669 -761 0
-669 762 0
-762 763 0
-686 -762 0
-686 763 0
-763 764 0
-693 -763 0
-693 764 0
-764 765 0
-708 -764 0
-708 765 0
-765 766 0
-722 -765 0
-722 766 0
-766 767 0
-735 -766 0
-735 767 0
-767 768 0
-747 -767 0
-747 768 0
-768 769 0
-759 -768 0
-759 769 0
-760 -769 0
652 670 687 694 709 723 736 748 759 770 0
-652 771 0
-771 772 0
-670 -771 0
-670 772 0
-772 773 0
-687 -772 0
-687 773 0
-773 774 0
-694 -773 0
-694 774 0
-774 775 0
-709 -774 0
-709 775 0
-775 776 0
-723 -775 0
-723 776 0
-776 777 0
-736 -776 0
-736 777 0
-777 778 0
-748 -777 0
-748 778 0
-778 779 0
-759 -778 0
-759 779 0
-770 -779 0
653 671 688 695 710 724 737 749 760 770 0
-653 780 0
-780 781 0
-671 -780 0
-671 781 0
-781 782 0
-688 -781 0
-688 782 0
-782 783 0
-695 -782 0
-695 783 0
-783 784 0
-710 -783 0
-710 784 0
-784 785 0
-724 -784 0
-724 785 0
-785 786 0
-737 -785 0
-737 786 0
-786 787 0
-749 -786 0
-749 787 0
-787 788 0
-760 -787 0
-760 788 0
-770 -788 0
1 6 8 25 64 108 197 199 240 255 258 398 0
-1 789 0
-789 790 0
-6 -789 0
-6 790 0
-790 791 0
-8 -790 0
-8 791 0
-791 792 0
-25 -791 0
-25 792 0
-792 793 0
-64 -792 0
-64 793 0
-793 794 0
-108 -793 0
-108 794 0
-794 795 0
-197 -794 0
-197 795 0
-795 796 0
-199 -795 0
-199 796 0
-796 797 0
-240 -796 0
-240 797 0
-797 798 0
-255 -797 0
-255 798 0
-798 799 0
-258 -798 0
-258 799 0
-398 -799 0
-800 0
-801 0
-802 0
-803 0
-804 0
-805 0
-806 0
-807 0
-808 0
-809 0
-810 0
800 811 812 813 814 815 816 817 818 819 820 0
-800 821 0
-821 822 0
-811 -821 0
-811 822 0
-822 823 0
-812 -822 0
-812 823 0
-823 824 0
-813 -823 0
-813 824 0
-824 825 0
-814 -824 0
-814 825 0
-825 826 0
-815 -825 0
-815 826 0
-826 827 0
-816 -826 0
-816 827 0
-827 828 0
-817 -827 0
-817 828 0
-828 829 0
-818 -828 0
-818 829 0
-829 830 0
-819 -829 0
-819 830 0
-820 -830 0
801 811 831 832 833 834 835 836 837 838 839 0
-801 840 0
-840 841 0
-811 -840 0
-811 841 0
-841 842 0
-831 -841 0
-831 842 0
-842 843 0
-832 -842 0
-832 843 0
-843 844 0
-833 -843 0
-833 844 0
-844 845 0
-834 -844 0
-834 845 0
-845 846 0
-835 -845 0
-835 846 0
-846 847 0
-836 -846 0
-836 847 0
-847 848 0
-837 -847 0
-837 848 0
-848 849 0
-838 -848 0
-838 849 0
-839 -849 0
802 812 831 850 851 852 853 854 855 856 857 0
-802 858 0
-858 859 0
-812 -858 0
-812 859 0
-859 860 0
-831 -859 0
-831 860 0
-860 861 0
-850 -860 0
-850 861 0
-861 862 0
-851 -861 0
-851 862 0
-862 863 0
-852 -862 0
-852 863 0
-863 864 0
-853 -863 0
-853 864 0
-864 865 0
-854 -864 0
-854 865 0
-865 866 0
-855 -865 0
-855 866 0
-866 867 0
-856 -866 0
-856 867 0
-857 -867 0
-803 0
-813 0
-832 0
-850 0
-868 0
-869 0
-870 0
-871 0
-872 0
-873 0
-874 0
804 814 833 851 868 875 876 877 878 879 880 0
-804 881 0
-881 882 0
-814 -881 0
-814 882 0
-882 883 0
-833 -882 0
-833 883 0
-883 884 0
-851 -883 0
-851 884 0
-884 885 0
-868 -884 0
-868 885 0
-885 886 0
-875 -885 0
-875 886 0
-886 887 0
-876 -886 0
-876 887 0
-887 888 0
-877 -887 0
-877 888 0
-888 889 0
-878 -888 0
-878 889 0
-889 890 0
-879 -889 0
-879 890 0
-880 -890 0
805 815 834 852 869 875 891 892 893 894 895 0
-805 896 0
-896 897 0
-815 -896 0
-815 897 0
-897 898 0
-834 -897 0
-834 898 0
-898 899 0
-852 -898 0
-852 899 0
-899 900 0
-869 -899 0
-869 900 0
-900 901 0
-875 -900 0
-875 901 0
-901 902 0
-891 -901 0
-891 902 0
-902 903 0
-892 -902 0
-892 903 0
-903 904 0
-893 -903 0
-893 904 0
-904 905 0
-894 -904 0
-894 905 0
-895 -905 0
806 816 835 853 870 876 891 906 907 908 909 0
-806 910 0
-910 911 0
-816 -910 0
-816 911 0
-911 912 0
-835 -911 0
-835 912 0
-912 913 0
-853 -912 0
-853 913 0
-913 914 0
-870 -913 0
-870 914 0
-914 915 0
-876 -914 0
-876 915 0
-915 916 0
-891 -915 0
-891 916 0
-916 917 0
-906 -916 0
-906 917 0
-917 918 0
-907 -917 0
-907 918 0
-918 919 0
-908 -918 0
-908 919 0
-909 -919 0
807 817 836 854 871 877 892 906 920 921 922 0
-807 923 0
-923 924 0
-817 -923 0
-817 924 0
-924 925 0
-836 -924 0
-836 925 0
-925 926 0
-854 -925 0
-854 926 0
-926 927 0
-871 -926 0
-871 927 0
-927 928 0
-877 -927 0
-877 928 0
-928 929 0
-892 -928 0
-892 929 0
-929 930 0
-906 -929 0
-906 930 0
-930 931 0
-920 -930 0
-920 931 0
-931 932 0
-921 -931 0
-921 932 0
-922 -932 0
808 818 837 855 872 878 893 907 920 933 934 0
-808 935 0
-935 936 0
-818 -935 0
-818 936 0
-936 937 0
-837 -936 0
-837 937 0
-937 938 0
-855 -937 0
-855 938 0
-938 939 0
-872 -938 0
-872 939 0
-939 940 0
-878 -939 0
-878 940 0
-940 941 0
-893 -940 0
-893 941 0
-941 942 0
-907 -941 0
-907 942 0
-942 943 0
-920 -942 0
-920 943 0
-943 944 0
-933 -943 0
-933 944 0
-934 -944 0
809 819 838 856 873 879 894 908 921 933 945 0
-809 946 0
-946 947 0
-819 -946 0
-819 947 0
-947 948 0
-838 -947 0
-838 948 0
-948 949 0
-856 -948 0
-856 949 0
-949 950 0
-873 -949 0
-873 950 0
-950 951 0
-879 -950 0
-879 951 0
-951 952 0
-894 -951 0
-894 952 0
-952 953 0
-908 -952 0
-908 953 0
-953 954 0
-921 -953 0
-921 954 0
-954 955 0
-933 -954 0
-933 955 0
-945 -955 0
810 820 839 857 874 880 895 909 922 934 945 0
-810 956 0
-956 957 0
-820 -956 0
-820 957 0
-957 958 0
-839 -957 0
-839 958 0
-958 959 0
-857 -958 0
-857 959 0
-959 960 0
-874 -959 0
-874 960 0
-960 961 0
-880 -960 0
-880 961 0
-961 962 0
-895 -961 0
-895 962 0
-962 963 0
-909 -962 0
-909 963 0
-963 964 0
-922 -963 0
-922 964 0
-964 965 0
-934 -964 0
-934 965 0
-945 -965 0
10 12 17 71 111 155 156 199 241 257 315 0
-10 966 0
-966 967 0
-12 -966 0
-12 967 0
-967 968 0
-17 -967 0
-17 968 0
-968 969 0
-71 -968 0
-71 969 0
-969 970 0
-111 -969 0
-111 970 0
-970 971 0
-155 -970 0
-155 971 0
-971 972 0
-156 -971 0
-156 972 0
-972 973 0
-199 -972 0
-199 973 0
-973 974 0
-241 -973 0
-241 974 0
-974 975 0
-257 -974 0
-257 975 0
-315 -975 0
976 977 978 979 980 981 982 983 984 985 0
-976 986 0
-986 987 0
-977 -986 0
-977 987 0
-987 988 0
-978 -987 0
-978 988 0
-988 989 0
-979 -988 0
-979 989 0
-989 990 0
-980 -989 0
-980 990 0
-990 991 0
-981 -990 0
-981 991 0
-991 992 0
-982 -991 0
-982 992 0
-992 993 0
-983 -992 0
-983 993 0
-993 994 0
-984 -993 0
-984 994 0
-985 -994 0
976 995 996 997 998 999 1000 1001 1002 1003 0
-976 1004 0
-1004 1005 0
-995 -1004 0
-995 1005 0
-1005 1006 0
-996 -1005 0
-996 1006 0
-1006 1007 0
-997 -1006 0
-997 1007 0
-1007 1008 0
-998 -1007 0
-998 1008 0
-1008 1009 0
-999 -1008 0
-999 1009 0
-1009 1010 0
-1000 -1009 0
-1000 1010 0
-1010 1011 0
-1001 -1010 0
-1001 1011 0
-1011 1012 0
-1002 -1011 0
-1002 1012 0
-1003 -1012 0
977 995 1013 1014 1015 1016 1017 1018 1019 1020 0
-977 1021 0
-1021 1022 0
-995 -1021 0
-995 1022 0
-1022 1023 0
-1013 -1022 0
-1013 1023 0
-1023 1024 0
-1014 -1023 0
-1014 1024 0
-1024 1025 0
-1015 -1024 0
-1015 1025 0
-1025 1026 0
-1016 -1025 0
-1016 1026 0
-1026 1027 0
-1017 -1026 0
-1017 1027 0
-1027 1028 0
-1018 -1027 0
-1018 1028 0
-1028 1029 0
-1019 -1028 0
-1019 1029 0
-1020 -1029 0
978 996 1013 1030 1031 1032 1033 1034 1035 1036 0
-978 1037 0
-1037 1038 0
-996 -1037 0
-996 1038 0
-1038 1039 0
-1013 -1038 0
-1013 1039 0
-1039 1040 0
-1030 -1039 0
-1030 1040 0
-1040 1041 0
-1031 -1040 0
-1031 1041 0
-1041 1042 0
-1032 -1041 0
-1032 1042 0
-1042 1043 0
-1033 -1042 0
-1033 1043 0
-1043 1044 0
-1034 -1043 0
-1034 1044 0
-1044 1045 0
-1035 -1044 0
-1035 1045 0
-1036 -1045 0
-979 0
-997 0
-1014 0
-1030 0
-1046 0
-1047 0
-1048 0
-1049 0
-1050 0
-1051 0
980 998 1015 1031 1046 1052 1053 1054 1055 1056 0
-980 1057 0
-1057 1058 0
-998 -1057 0
-998 1058 0
-1058 1059 0
-1015 -1058 0
-1015 1059 0
-1059 1060 0
-1031 -1059 0
-1031 1060 0
-1060 1061 0
-1046 -1060 0
-1046 1061 0
-1061 1062 0
-1052 -1061 0
-1052 1062 0
-1062 1063 0
-1053 -1062 0
-1053 1063 0
-1063 1064 0
-1054 -1063 0
-1054 1064 0
-1064 1065 0
-1055 -1064 0
-1055 1065 0
-1056 -1065 0
981 999 1016 1032 1047 1052 1066 1067 1068 1069 0
-981 1070 0
-1070 1071 0
-999 -1070 0
-999 1071 0
-1071 1072 0
-1016 -1071 0
-1016 1072 0
-1072 1073 0
-1032 -1072 0
-1032 1073 0
-1073 1074 0
-1047 -1073 0
-1047 1074 0
-1074 1075 0
-1052 -1074 0
-1052 1075 0
-1075 1076 0
-1066 -1075 0
-1066 1076 0
-1076 1077 0
-1067 -1076 0
-1067 1077 0
-1077 1078 0
-1068 -1077 0
-1068 1078 0
-1069 -1078 0
982 1000 1017 1033 1048 1053 1066 1079 1080 1081 0
-982 1082 0
-1082 1083 0
-1000 -1082 0
-1000 1083 0
-1083 1084 0
-1017 -1083 0
-1017 1084 0
-1084 1085 0
-1033 -1084 0
-1033 1085 0
-1085 1086 0
-1048 -1085 0
-1048 1086 0
-1086 1087 0
-1053 -1086 0
-1053 1087 0
-1087 1088 0
-1066 -1087 0
-1066 1088 0
-1088 1089 0
-1079 -1088 0
-1079 1089 0
-1089 1090 0
-1080 -1089 0
-1080 1090 0
-1081 -1090 0
983 1001 1018 1034 1049 1054 1067 1079 1091 1092 0
-983 1093 0
-1093 1094 0
-1001 -1093 0
-1001 1094 0
-1094 1095 0
-1018 -1094 0
-1018 1095 0
-1095 1096 0
-1034 -1095 0
-1034 1096 0
-1096 1097 0
-1049 -1096 0
-1049 1097 0
-1097 1098 0
-1054 -1097 0
-1054 1098 0
-1098 1099 0
-1067 -1098 0
-1067 1099 0
-1099 1100 0
-1079 -1099 0
-1079 1100 0
-1100 1101 0
-1091 -1100 0
-1091 1101 0
-1092 -1101 0
984 1002 1019 1035 1050 1055 1068 1080 1091 1102 0
-984 1103 0
-1103 1104 0
-1002 -1103 0
-1002 1104 0
-1104 1105 0
-1019 -1104 0
-1019 1105 0
-1105 1106 0
-1035 -1105 0
-1035 1106 0
-1106 1107 0
-1050 -1106 0
-1050 1107 0
-1107 1108 0
-1055 -1107 0
-1055 1108 0
-1108 1109 0
-1068 -1108 0
-1068 1109 0
-1109 1110 0
-1080 -1109 0
-1080 1110 0
-1110 1111 0
-1091 -1110 0
-1091 1111 0
-1102 -1111 0
985 1003 1020 1036 1051 1056 1069 1081 1092 1102 0
-985 1112 0
-1112 1113 0
-1003 -1112 0
-1003 1113 0
-1113 1114 0
-1020 -1113 0
-1020 1114 0
-1114 1115 0
-1036 -1114 0
-1036 1115 0
-1115 1116 0
-1051 -1115 0
-1051 1116 0
-1116 1117 0
-1056 -1116 0
-1056 1117 0
-1117 1118 0
-1069 -1117 0
-1069 1118 0
-1118 1119 0
-1081 -1118 0
-1081 1119 0
-1119 1120 0
-1092 -1119 0
-1092 1120 0
-1102 -1120 0
8 16 17 24 63 158 196 237 269 270 314 0
-8 1121 0
-1121 1122 0
-16 -1121 0
-16 1122 0
-1122 1123 0
-17 -1122 0
-17 1123 0
-1123 1124 0
-24 -1123 0
-24 1124 0
-1124 1125 0
-63 -1124 0
-63 1125 0
-1125 1126 0
-158 -1125 0
-158 1126 0
-1126 1127 0
-196 -1126 0
-196 1127 0
-1127 1128 0
-237 -1127 0
-237 1128 0
-1128 1129 0
-269 -1128 0
-269 1129 0
-1129 1130 0
-270 -1129 0
-270 1130 0
-314 -1130 0
1131 1132 1133 1134 1135 1136 1137 1138 1139 1140 0
-1131 1141 0
-1141 1142 0
-1132 -1141 0
-1132 1142 0
-1142 1143 0
-1133 -1142 0
-1133 1143 0
-1143 1144 0
-1134 -1143 0
-1134 1144 0
-1144 1145 0
-1135 -1144 0
-1135 1145 0
-1145 1146 0
-1136 -1145 0
-1136 1146 0
-1146 1147 0
-1137 -1146 0
-1137 1147 0
-1147 1148 0
-1138 -1147 0
-1138 1148 0
-1148 1149 0
-1139 -1148 0
-1139 1149 0
-1140 -1149 0
1131 1150 1151 1152 1153 1154 1155 1156 1157 1158 0
-1131 1159 0
-1159 1160 0
-1150 -1159 0
-1150 1160 0
-1160 1161 0
-1151 -1160 0
-1151 1161 0
-1161 1162 0
-1152 -1161 0
-1152 1162 0
-1162 1163 0
-1153 -1162 0
-1153 1163 0
-1163 1164 0
-1154 -1163 0
-1154 1164 0
-1164 1165 0
-1155 -1164 0
-1155 1165 0
-1165 1166 0
-1156 -1165 0
-1156 1166 0
-1166 1167 0
-1157 -1166 0
-1157 1167 0
-1158 -1167 0
1132 1150 1168 1169 1170 1171 1172 1173 1174 1175 0
-1132 1176 0
-1176 1177 0
-1150 -1176 0
-1150 1177 0
-1177 1178 0
-1168 -1177 0
-1168 1178 0
-1178 1179 0
-1169 -1178 0
-1169 1179 0
-1179 1180 0
-1170 -1179 0
-1170 1180 0
-1180 1181 0
-1171 -1180 0
-1171 1181 0
-1181 1182 0
-1172 -1181 0
-1172 1182 0
-1182 1183 0
-1173 -1182 0
-1173 1183 0
-1183 1184 0
-1174 -1183 0
-1174 1184 0
-1175 -1184 0
1133 1151 1168 1185 1186 1187 1188 1189 1190 1191 0
-1133 1192 0
-1192 1193 0
-1151 -1192 0
-1151 1193 0
-1193 1194 0
-1168 -1193 0
-1168 1194 0
-1194 1195 0
-1185 -1194 0
-1185 1195 0
-1195 1196 0
-1186 -1195 0
-1186 1196 0
-1196 1197 0
-1187 -1196 0
-1187 1197 0
-1197 1198 0
-1188 -1197 0
-1188 1198 0
-1198 1199 0
-1189 -1198 0
-1189 1199 0
-1199 1200 0
-1190 -1199 0
-1190 1200 0
-1191 -1200 0
1134 1152 1169 1185 1201 1202 1203 1204 1205 1206 0
-1134 1207 0
-1207 1208 0
-1152 -1207 0
-1152 1208 0
-1208 1209 0
-1169 -1208 0
-1169 1209 0
-1209 1210 0
-1185 -1209 0
-1185 1210 0
-1210 1211 0
-1201 -1210 0
-1201 1211 0
-1211 1212 0
-1202 -1211 0
-1202 1212 0
-1212 1213 0
-1203 -1212 0
-1203 1213 0
-1213 1214 0
-1204 -1213 0
-1204 1214 0
-1214 1215 0
-1205 -1214 0
-1205 1215 0
-1206 -1215 0
-1135 0
-1153 0
-1170 0
-1186 0
-1201 0
-1216 0
-1217 0
-1218 0
-1219 0
-1220 0
1136 1154 1171 1187 1202 1216 1221 1222 1223 1224 0
-1136 1225 0
-1225 1226 0
-1154 -1225 0
-1154 1226 0
-1226 1227 0
-1171 -1226 0
-1171 1227 0
-1227 1228 0
-1187 -1227 0
-1187 1228 0
-1228 1229 0
-1202 -1228 0
-1202 1229 0
-1229 1230 0
-1216 -1229 0
-1216 1230 0
-1230 1231 0
-1221 -1230 0
-1221 1231 0
-1231 1232 0
-1222 -1231 0
-1222 1232 0
-1232 1233 0
-1223 -1232 0
-1223 1233 0
-1224 -1233 0
1137 1155 1172 1188 1203 1217 1221 1234 1235 1236 0
-1137 1237 0
-1237 1238 0
-1155 -1237 0
-1155 1238 0
-1238 1239 0
-1172 -1238 0
-1172 1239 0
-1239 1240 0
-1188 -1239 0
-1188 1240 0
-1240 1241 0
-1203 -1240 0
-1203 1241 0
-1241 1242 0
-1217 -1241 0
-1217 1242 0
-1242 1243 0
-1221 -1242 0
-1221 1243 0
-1243 1244 0
-1234 -1243 0
-1234 1244 0
-1244 1245 0
-1235 -1244 0
-1235 1245 0
-1236 -1245 0
1138 1156 1173 1189 1204 1218 1222 1234 1246 1247 0
-1138 1248 0
-1248 1249 0
-1156 -1248 0
-1156 1249 0
-1249 1250 0
-1173 -1249 0
-1173 1250 0
-1250 1251 0
-1189 -1250 0
-1189 1251 0
-1251 1252 0
-1204 -1251 0
-1204 1252 0
-1252 1253 0
-1218 -1252 0
-1218 1253 0
-1253 1254 0
-1222 -1253 0
-1222 1254 0
-1254 1255 0
-1234 -1254 0
-1234 1255 0
-1255 1256 0
-1246 -1255 0
-1246 1256 0
-1247 -1256 0
1139 1157 1174 1190 1205 1219 1223 1235 1246 1257 0
-1139 1258 0
-1258 1259 0
-1157 -1258 0
-1157 1259 0
-1259 1260 0
-1174 -1259 0
-1174 1260 0
-1260 1261 0
-1190 -1260 0
-1190 1261 0
-1261 1262 0
-1205 -1261 0
-1205 1262 0
-1262 1263 0
-1219 -1262 0
-1219 1263 0
-1263 1264 0
-1223 -1263 0
-1223 1264 0
-1264 1265 0
-1235 -1264 0
-1235 1265 0
-1265 1266 0
-1246 -1265 0
-1246 1266 0
-1257 -1266 0
1140 1158 1175 1191 1206 1220 1224 1236 1247 1257 0
-1140 1267 0
-1267 1268 0
-1158 -1267 0
-1158 1268 0
-1268 1269 0
-1175 -1268 0
-1175 1269 0
-1269 1270 0
-1191 -1269 0
-1191 1270 0
-1270 1271 0
-1206 -1270 0
-1206 1271 0
-1271 1272 0
-1220 -1271 0
-1220 1272 0
-1272 1273 0
-1224 -1272 0
-1224 1273 0
-1273 1274 0
-1236 -1273 0
-1236 1274 0
-1274 1275 0
-1247 -1274 0
-1247 1275 0
-1257 -1275 0
6 13 18 66 67 112 157 200 256 271 315 0
-6 1276 0
-1276 1277 0
-13 -1276 0
-13 1277 0
-1277 1278 0
-18 -1277 0
-18 1278 0
-1278 1279 0
-66 -1278 0
-66 1279 0
-1279 1280 0
-67 -1279 0
-67 1280 0
-1280 1281 0
-112 -1280 0
-112 1281 0
-1281 1282 0
-157 -1281 0
-157 1282 0
-1282 1283 0
-200 -1282 0
-200 1283 0
-1283 1284 0
-256 -1283 0
-256 1284 0
-1284 1285 0
-271 -1284 0
-271 1285 0
-315 -1285 0
1286 1287 1288 1289 1290 1291 1292 1293 1294 1295 0
-1286 1296 0
-1296 1297 0
-1287 -1296 0
-1287 1297 0
-1297 1298 0
-1288 -1297 0
-1288 1298 0
-1298 1299 0
-1289 -1298 0
-1289 1299 0
-1299 1300 0
-1290 -1299 0
-1290 1300 0
-1300 1301 0
-1291 -1300 0
-1291 1301 0
-1301 1302 0
-1292 -1301 0
-1292 1302 0
-1302 1303 0
-1293 -1302 0
-1293 1303 0
-1303 1304 0
-1294 -1303 0
-1294 1304 0
-1295 -1304 0
1286 1305 1306 1307 1308 1309 1310 1311 1312 1313 0
-1286 1314 0
-1314 1315 0
-1305 -1314 0
-1305 1315 0
-1315 1316 0
-1306 -1315 0
-1306 1316 0
-1316 1317 0
-1307 -1316 0
-1307 1317 0
-1317 1318 0
-1308 -1317 0
-1308 1318 0
-1318 1319 0
-1309 -1318 0
-1309 1319 0
-1319 1320 0
-1310 -1319 0
-1310 1320 0
-1320 1321 0
-1311 -1320 0
-1311 1321 0
-1321 1322 0
-1312 -1321 0
-1312 1322 0
-1313 -1322 0
1287 1305 1323 1324 1325 1326 1327 1328 1329 1330 0
-1287 1331 0
-1331 1332 0
-1305 -1331 0
-1305 1332 0
-1332 1333 0
-1323 -1332 0
-1323 1333 0
-1333 1334 0
-1324 -1333 0
-1324 1334 0
-1334 1335 0
-1325 -1334 0
-1325 1335 0
-1335 1336 0
-1326 -1335 0
-1326 1336 0
-1336 1337 0
-1327 -1336 0
-1327 1337 0
-1337 1338 0
-1328 -1337 0
-1328 1338 0
-1338 1339 0
-1329 -1338 0
-1329 1339 0
-1330 -1339 0
1288 1306 1323 1340 1341 1342 1343 1344 1345 1346 0
-1288 1347 0
-1347 1348 0
-1306 -1347 0
-1306 1348 0
-1348 1349 0
-1323 -1348 0
-1323 1349 0
-1349 1350 0
-1340 -1349 0
-1340 1350 0
-1350 1351 0
-1341 -1350 0
-1341 1351 0
-1351 1352 0
-1342 -1351 0
-1342 1352 0
-1352 1353 0
-1343 -1352 0
-1343 1353 0
-1353 1354 0
-1344 -1353 0
-1344 1354 0
-1354 1355 0
-1345 -1354 0
-1345 1355 0
-1346 -1355 0
1289 1307 1324 1340 1356 1357 1358 1359 1360 1361 0
-1289 1362 0
-1362 1363 0
-1307 -1362 0
-1307 1363 0
-1363 1364 0
-1324 -1363 0
-1324 1364 0
-1364 1365 0
-1340 -1364 0
-1340 1365 0
-1365 1366 0
-1356 -1365 0
-1356 1366 0
-1366 1367 0
-1357 -1366 0
-1357 1367 0
-1367 1368 0
-1358 -1367 0
-1358 1368 0
-1368 1369 0
-1359 -1368 0
-1359 1369 0
-1369 1370 0
-1360 -1369 0
-1360 1370 0
-1361 -1370 0
1290 1308 1325 1341 1356 1371 1372 1373 1374 1375 0
-1290 1376 0
-1376 1377 0
-1308 -1376 0
-1308 1377 0
-1377 1378 0
-1325 -1377 0
-1325 1378 0
-1378 1379 0
-1341 -1378 0
-1341 1379 0
-1379 1380 0
-1356 -1379 0
-1356 1380 0
-1380 1381 0
-1371 -1380 0
-1371 1381 0
-1381 1382 0
-1372 -1381 0
-1372 1382 0
-1382 1383 0
-1373 -1382 0
-1373 1383 0
-1383 1384 0
-1374 -1383 0
-1374 1384 0
-1375 -1384 0
1291 1309 1326 1342 1357 1371 1385 1386 1387 1388 0
-1291 1389 0
-1389 1390 0
-1309 -1389 0
-1309 1390 0
-1390 1391 0
-1326 -1390 0
-1326 1391 0
-1391 1392 0
-1342 -1391 0
-1342 1392 0
-1392 1393 0
-1357 -1392 0
-1357 1393 0
-1393 1394 0
-1371 -1393 0
-1371 1394 0
-1394 1395 0
-1385 -1394 0
-1385 1395 0
-1395 1396 0
-1386 -1395 0
-1386 1396 0
-1396 1397 0
-1387 -1396 0
-1387 1397 0
-1388 -1397 0
-1292 0
-1310 0
-1327 0
-1343 0
-1358 0
-1372 0
-1385 0
-1398 0
-1399 0
-1400 0
1293 1311 1328 1344 1359 1373 1386 1398 1401 1402 0
-1293 1403 0
-1403 1404 0
-1311 -1403 0
-1311 1404 0
-1404 1405 0
-1328 -1404 0
-1328 1405 0
-1405 1406 0
-1344 -1405 0
-1344 1406 0
-1406 1407 0
-1359 -1406 0
-1359 1407 0
-1407 1408 0
-1373 -1407 0
-1373 1408 0
-1408 1409 0
-1386 -1408 0
-1386 1409 0
-1409 1410 0
-1398 -1409 0
-1398 1410 0
-1410 1411 0
-1401 -1410 0
-1401 1411 0
-1402 -1411 0
1294 1312 1329 1345 1360 1374 1387 1399 1401 1412 0
-1294 1413 0
-1413 1414 0
-1312 -1413 0
-1312 1414 0
-1414 1415 0
-1329 -1414 0
-1329 1415 0
-1415 1416 0
-1345 -1415 0
-1345 1416 0
-1416 1417 0
-1360 -1416 0
-1360 1417 0
-1417 1418 0
-1374 -1417 0
-1374 1418 0
-1418 1419 0
-1387 -1418 0
-1387 1419 0
-1419 1420 0
-1399 -1419 0
-1399 1420 0
-1420 1421 0
-1401 -1420 0
-1401 1421 0
-1412 -1421 0
1295 1313 1330 1346 1361 1375 1388 1400 1402 1412 0
-1295 1422 0
-1422 1423 0
-1313 -1422 0
-1313 1423 0
-1423 1424 0
-1330 -1423 0
-1330 1424 0
-1424 1425 0
-1346 -1424 0
-1346 1425 0
-1425 1426 0
-1361 -1425 0
-1361 1426 0
-1426 1427 0
-1375 -1426 0
-1375 1427 0
-1427 1428 0
-1388 -1427 0
-1388 1428 0
-1428 1429 0
-1400 -1428 0
-1400 1429 0
-1429 1430 0
-1402 -1429 0
-1402 1430 0
-1412 -1430 0
1 2 3 4 5 6 7 8 9 10 11 12 13 14 15 16 17 18 19 -20 21 22 23 -24 25 26 63 64 65 66 67 -68 69 -70 71 -108 109 110 111 112 -113 114 115 152 153 154 155 156 -157 158 195 196 197 -198 199 200 237 238 239 240 241 -242 254 255 256 -257 258 269 270 271 -272 313 314 315 356 357 398 0
1 2 3 4 5 6 7 8 9 10 11 12 13 14 15 16 17 18 19 -20 -21 22 23 24 25 26 63 64 65 66 67 -68 69 -70 71 -108 109 110 111 112 113 114 -115 152 153 154 155 156 -157 158 195 196 197 -198 199 200 237 238 239 240 241 242 254 255 256 -257 258 -269 270 271 272 313 314 315 356 -357 398 0
1 2 3 4 5 6 7 8 9 10 11 12 13 14 15 16 17 18 19 -20 21 -22 23 24 25 26 63 64 65 66 67 -68 69 -70 71 -108 109 110 111 112 113 114 -115 152 153 154 155 156 -157 158 195 196 197 -198 199 200 237 238 239 240 -241 242 254 255 256 257 258 -269 270 271 272 313 314 315 356 -357 398 0
1 2 3 4 5 6 7 8 9 10 11 12 13 14 15 16 17 18 19 -20 21 22 23 24 -25 26 63 64 65 66 67 -68 69 -70 71 108 109 110 -111 112 113 114 -115 152 -153 154 155 156 -157 158 195 196 197 -198 199 200 237 238 239 240 241 242 254 255 256 257 258 -269 270 271 272 313 314 315 356 -357 398 0
1 2 3 4 5 6 7 8 9 10 11 12 13 14 15 16 17 18 19 -20 21 22 23 24 -25 26 63 64 65 66 67 68 -69 -70 71 108 109 110 -111 112 113 114 -115 152 -153 154 155 156 -157 158 195 196 197 -198 199 200 237 238 239 240 241 242 254 255 256 257 258 -269 270 271 -272 313 314 315 356 357 398 0
1 2 3 4 5 6 7 8 9 10 11 12 13 14 15 16 17 18 -19 -20 21 22 23 24 25 26 -63 64 65 66 67 -68 69 70 71 108 109 110 -111 112 113 114 115 152 153 154 155 156 -157 158 195 196 197 -198 199 200 237 238 -239 240 241 242 254 255 256 257 258 269 270 271 -272 313 314 315 -356 357 -398 0
1 2 3 4 5 6 7 8 9 10 11 12 13 14 15 16 17 18 -19 -20 21 22 23 24 25 26 -63 64 65 66 67 -68 69 70 71 108 109 110 111 112 113 114 -115 152 153 154 155 156 -157 158 195 196 197 -198 199 200 237 238 239 240 -241 242 254 -255 256 257 258 269 270 271 -272 313 314 315 -356 357 398 0
1 2 3 4 5 6 7 8 9 10 11 12 13 14 15 16 17 -18 19 20 -21 22 23 24 25 26 63 64 65 66 67 -68 69 -70 71 108 109 110 111 112 -113 114 115 152 153 -154 155 156 157 -158 195 196 197 -198 -199 200 237 238 239 240 241 242 254 255 256 257 258 269 270 271 -272 313 314 315 -356 357 398 0
1 2 3 4 5 6 7 8 9 10 11 12 13 14 15 16 17 -18 19 20 21 -22 23 24 25 26 63 64 65 66 67 -68 69 -70 71 108 109 110 111 112 -113 114 115 152 -153 154 155 156 157 -158 195 196 197 -198 -199 200 237 238 239 240 241 242 254 255 256 257 258 269 270 271 -272 313 314 315 -356 357 398 0
1 2 3 4 5 6 7 8 9 10 11 12 13 14 15 16 17 18 19 -20 21 22 23 -24 25 26 63 64 65 66 -67 -68 69 70 71 108 109 110 111 112 -113 114 -115 152 -153 154 -155 156 157 158 195 196 197 -198 199 200 237 238 239 240 241 242 254 255 256 257 258 269 270 271 272 313 314 315 -356 357 -398 0
1 2 3 4 5 6 7 8 9 10 11 12 13 14 15 16 17 18 19 -20 21 22 23 -24 25 26 63 64 65 -66 67 -68 69 70 71 108 109 110 111 112 -113 114 -115 152 153 -154 -155 156 157 158 195 196 197 -198 199 200 237 238 239 240 241 242 254 255 256 257 258 269 270 271 272 313 314 315 -356 357 -398 0
1 2 3 4 5 6 7 8 9 10 11 12 13 14 15 16 17 -18 19 20 21 22 23 -24 25 26 63 64 -65 66 67 -68 69 70 71 108 109 110 111 112 113 114 -115 152 153 -154 -155 156 157 158 195 196 197 -198 199 200 237 238 -239 240 241 242 254 255 256 257 258 269 270 271 272 313 314 315 -356 357 -398 0
1 2 3 4 5 6 7 8 9 10 11 12 13 14 15 16 17 18 19 -20 21 22 23 -24 25 26 63 64 -65 66 67 -68 69 70 71 108 109 110 111 -112 113 114 -115 152 153 -154 155 -156 157 158 195 196 197 198 199 200 237 238 -239 240 241 242 254 255 256 257 258 269 270 271 272 313 314 315 -356 357 -398 0
1 2 3 4 5 6 7 8 9 10 11 12 13 14 15 16 17 -18 19 20 21 22 23 -24 25 26 63 64 -65 66 67 -68 69 70 71 108 109 110 111 112 113 114 -115 152 153 -154 155 -156 157 158 195 196 197 -198 199 200 237 -238 239 240 241 242 254 255 256 257 258 269 270 271 272 313 314 315 -356 357 -398 0
1 2 3 4 5 6 7 8 9 10 11 12 13 14 15 16 17 18 19 20 -21 22 23 -24 25 26 63 64 -65 66 67 -68 69 70 71 108 109 110 111 -112 113 114 -115 152 153 -154 155 -156 157 158 195 196 197 -198 199 200 237 238 239 240 241 242 254 255 256 257 258 269 270 271 272 313 314 315 -356 357 -398 0
1 2 3 4 5 6 7 8 9 10 11 12 13 14 15 16 17 -18 19 20 21 22 23 -24 25 26 63 64 -65 66 67 -68 69 70 71 108 109 -110 111 112 113 114 115 152 153 -154 155 -156 157 158 195 196 197 -198 199 200 237 238 239 240 241 242 254 255 256 257 258 269 270 271 -272 313 314 315 -356 357 -398 0
1 2 3 4 5 6 7 8 9 10 11 12 13 14 15 16 17 18 19 20 21 -22 23 -24 25 26 63 64 -65 66 67 -68 69 70 71 108 109 110 111 -112 113 114 -115 152 -153 154 155 -156 157 158 195 196 197 -198 199 200 237 238 239 240 241 242 254 255 256 257 258 269 270 271 272 313 314 315 -356 357 -398 0
1 2 3 4 5 6 7 8 9 10 11 12 13 14 15 16 17 18 19 -20 21 -22 23 24 25 26 63 64 -65 66 67 -68 69 70 71 108 109 -110 111 112 113 114 -115 152 153 154 155 -156 -157 158 195 196 197 198 199 200 237 238 239 240 241 242 254 255 256 257 258 -269 270 271 272 313 314 315 -356 357 -398 0
1 2 3 4 5 6 7 8 9 10 11 12 13 14 15 16 17 18 19 -20 21 -22 23 24 25 26 -63 64 65 66 67 -68 69 70 71 108 109 110 111 112 -113 114 115 152 153 154 155 -156 -157 158 -195 196 197 198 199 200 237 238 239 240 241 242 254 255 256 257 258 269 270 271 -272 313 314 315 -356 357 -398 0
1 2 3 4 5 6 7 8 9 10 11 12 13 14 15 16 17 18 19 -20 21 22 23 -24 25 26 63 64 65 66 67 -68 69 -70 71 108 109 -110 111 112 113 114 -115 152 153 154 155 -156 -157 158 195 196 197 -198 199 200 237 238 239 240 241 242 -254 255 256 257 258 269 270 271 272 313 314 315 356 357 -398 0
1 2 3 4 5 6 7 8 9 10 11 12 13 14 15 16 17 18 19 -20 -21 22 23 24 25 26 -63 64 65 66 67 -68 69 70 71 108 109 110 111 112 113 114 -115 152 153 154 155 -156 -157 158 195 196 197 -198 199 200 237 238 239 240 241 242 -254 255 256 257 258 269 270 271 272 313 314 315 -356 357 -398 0
1 2 3 4 5 6 7 8 9 10 11 12 13 14 15 16 17 18 19 -20 21 22 23 24 -25 26 -63 64 65 66 67 -68 69 70 71 108 109 110 111 112 113 114 -115 152 153 154 155 -156 -157 158 195 196 197 -198 199 200 237 238 239 240 241 -242 -254 255 256 257 258 269 270 271 272 313 314 315 -356 357 398 0
1 2 3 4 5 6 7 8 9 10 11 12 13 14 15 16 17 18 19 -20 21 22 23 -24 25 26 63 64 65 66 67 -68 69 -70 71 -108 109 110 111 112 113 114 -115 152 -153 154 155 156 157 158 195 196 197 -198 199 200 237 238 239 240 241 242 -254 255 256 257 258 269 270 271 272 313 314 -315 -356 357 398 0
1 2 3 4 5 6 7 8 9 10 11 12 13 14 15 16 17 -18 19 -20 21 22 23 24 25 26 63 64 65 66 67 -68 -69 70 71 -108 109 110 111 112 113 114 115 152 153 154 155 156 157 -158 195 196 197 -198 199 200 237 238 -239 240 241 242 254 255 256 -257 258 269 270 271 -272 313 314 315 -356 357 398 0
1 2 3 4 5 6 7 8 9 10 11 12 13 14 15 16 17 -18 19 -20 21 22 23 24 25 26 63 64 65 66 67 -68 69 -70 71 108 109 110 111 112 -113 114 115 152 153 -154 155 156 157 -158 195 196 197 198 -199 200 237 238 -239 240 241 242 254 255 256 257 258 269 270 271 -272 313 314 315 -356 357 398 0
1 2 3 4 5 6 7 8 9 10 11 12 13 14 15 16 17 18 -19 20 21 -22 23 24 25 26 63 64 65 66 67 -68 69 -70 71 108 109 110 111 -112 113 114 -115 152 153 154 155 156 157 -158 195 196 197 -198 -199 200 237 238 -239 240 241 242 254 255 256 257 258 269 270 271 272 313 314 315 -356 357 398 0
1 2 3 4 5 6 7 8 9 10 11 12 13 14 15 16 17 18 -19 -20 21 22 23 24 25 26 -63 64 65 66 67 -68 69 70 71 108 109 110 111 112 113 114 -115 152 153 154 -155 156 157 158 195 196 197 -198 199 200 237 238 -239 240 241 242 254 255 -256 257 258 269 270 271 272 313 314 315 -356 357 -398 0
1 2 3 4 5 6 7 8 9 10 11 12 13 14 15 16 17 18 -19 -20 21 22 23 24 25 26 -63 64 65 66 67 68 69 -70 71 108 109 110 111 112 113 114 -115 152 153 154 155 -156 157 158 195 196 -197 198 199 200 237 238 -239 240 241 242 254 255 -256 257 258 269 270 271 -272 313 314 315 -356 357 398 0
1 2 3 4 5 6 7 8 9 10 11 12 13 14 15 16 17 -18 19 -20 21 22 23 24 25 26 63 64 65 66 67 -68 69 -70 71 -108 109 110 111 112 113 114 115 152 153 154 155 -156 157 158 195 -196 197 198 199 200 237 238 -239 240 241 242 254 255 256 257 258 269 270 271 -272 313 314 315 -356 -357 398 0
1 2 3 4 5 6 7 8 9 10 11 12 13 14 15 16 17 -18 19 20 -21 22 23 24 25 26 63 64 65 66 67 -68 69 -70 71 -108 109 110 111 112 113 114 115 152 153 154 155 -156 157 158 195 -196 197 -198 199 200 237 238 239 240 241 242 254 255 256 257 258 269 270 271 -272 313 314 315 -356 -357 398 0
1 2 3 4 5 6 7 8 9 10 11 12 13 14 15 16 17 -18 -19 20 21 22 23 24 25 26 63 64 65 66 67 -68 69 -70 71 108 109 110 111 112 113 114 -115 152 153 154 155 -156 157 158 195 -196 197 -198 199 200 237 238 239 -240 241 242 254 255 256 257 258 269 270 271 -272 313 314 315 -356 357 398 0
1 2 3 4 5 6 7 8 9 10 11 12 13 14 15 16 17 -18 19 -20 21 22 23 24 25 26 -63 64 65 66 67 68 -69 70 71 108 109 110 111 112 113 114 115 152 153 -154 155 -156 157 158 195 196 197 -198 199 200 237 -238 239 240 241 242 254 255 256 257 258 269 270 271 -272 313 314 315 -356 357 -398 0
1 2 3 4 5 6 7 8 9 10 11 12 13 14 15 16 17 18 19 -20 -21 22 23 24 25 26 -63 64 65 66 67 68 -69 70 71 108 109 110 111 -112 113 114 115 152 153 -154 155 -156 157 158 195 196 197 -198 199 200 237 238 239 240 241 242 254 255 256 257 258 269 270 271 -272 313 314 315 -356 357 -398 0
1 2 3 4 5 6 7 8 9 10 11 12 13 14 15 16 17 18 19 -20 21 22 23 24 -25 26 -63 64 65 66 67 68 -69 70 71 108 109 110 111 -112 113 114 115 152 153 -154 155 -156 157 158 195 196 197 -198 199 200 237 238 239 240 241 -242 254 255 256 257 258 269 270 271 -272 313 314 315 -356 357 398 0
1 2 3 4 5 6 7 8 9 10 11 12 13 14 15 16 17 18 19 20 21 22 23 -24 -25 26 63 64 65 66 67 68 -69 -70 71 108 109 110 111 -112 113 114 -115 152 153 -154 155 -156 157 158 -195 196 197 -198 199 200 237 238 239 240 241 242 254 255 256 257 258 269 270 271 -272 313 314 315 356 357 398 0
1 2 3 4 5 6 7 8 9 10 11 12 13 14 15 16 17 18 19 20 21 -22 23 24 -25 26 63 64 65 66 67 -68 -69 70 71 108 109 110 111 -112 113 114 -115 152 153 154 155 -156 157 -158 -195 196 197 -198 199 200 237 238 239 240 241 242 254 255 256 257 258 269 270 271 272 313 314 315 -356 357 398 0
1 2 3 4 5 6 7 8 9 10 11 12 13 14 15 16 17 18 19 -20 21 22 23 -24 25 26 63 64 65 66 67 -68 69 -70 71 108 109 110 111 -112 113 114 -115 152 -153 154 155 -156 157 158 195 196 197 -198 199 200 237 238 239 240 241 242 254 255 256 257 -258 269 270 271 272 313 314 315 -356 357 398 0
1 2 3 4 5 6 7 8 9 10 11 12 13 14 15 16 17 18 19 20 21 22 23 -24 -25 26 63 64 65 66 67 -68 69 -70 71 108 109 110 111 -112 113 114 -115 152 153 -154 155 -156 157 158 -195 196 197 -198 199 200 237 238 239 240 241 242 254 255 256 257 258 269 270 271 272 313 314 315 356 -357 398 0
1 2 3 4 5 6 7 8 9 10 11 12 13 14 15 16 17 -18 -19 20 21 22 23 24 25 26 63 64 65 66 67 -68 69 -70 71 108 109 110 111 112 113 114 -115 152 153 -154 155 156 157 158 195 196 197 -198 -199 200 237 238 239 240 241 -242 254 255 256 257 258 -269 270 271 272 313 314 315 -356 357 398 0
1 2 3 4 5 6 7 8 9 10 11 12 13 14 15 16 -17 18 19 20 21 22 23 24 -25 26 63 64 65 66 67 -68 69 70 71 108 109 110 111 112 -113 114 -115 152 153 -154 155 156 -157 158 -195 196 197 -198 199 200 237 238 239 240 241 242 254 255 256 257 258 269 270 271 -272 313 314 315 -356 357 398 0
1 2 3 4 5 6 7 8 9 10 11 12 13 14 15 16 17 -18 19 20 21 22 23 24 -25 26 -63 64 65 66 67 -68 69 70 71 108 109 110 111 112 113 114 115 152 153 -154 155 -156 157 158 -195 196 197 -198 199 200 237 238 239 240 241 242 254 255 256 257 258 269 270 271 -272 313 314 315 -356 -357 398 0
1 2 3 4 5 6 7 8 9 10 11 12 13 14 15 16 17 18 -19 20 21 22 23 -24 25 26 63 64 65 66 -67 68 69 -70 71 108 109 -110 111 112 113 114 -115 152 153 154 155 -156 157 158 195 196 -197 -198 199 200 237 238 239 240 241 242 254 255 256 257 258 269 270 271 -272 313 314 315 -356 357 398 0
1 2 3 4 5 6 7 8 9 10 11 12 13 14 15 16 17 18 -19 20 21 22 23 -24 25 26 63 64 65 66 67 -68 69 -70 71 108 109 -110 111 112 113 114 -115 152 153 -154 155 156 157 158 195 196 -197 -198 199 200 237 238 239 240 241 242 254 255 256 257 258 269 270 271 272 313 314 -315 -356 357 398 0
1 2 3 4 5 6 7 8 9 10 11 12 13 14 15 16 17 -18 19 -20 21 22 23 24 25 26 -63 64 65 66 67 68 -69 70 71 108 109 110 111 112 113 114 115 152 153 -154 -155 156 157 158 195 196 197 -198 199 200 237 238 -239 240 241 242 254 255 256 257 258 269 270 271 -272 313 314 315 -356 357 -398 0
1 2 3 4 5 6 7 8 9 10 11 12 13 14 15 16 17 18 19 -20 21 22 23 -24 25 26 63 64 65 66 67 68 -69 -70 71 108 109 110 111 -112 113 114 -115 152 153 -154 -155 156 157 158 195 196 197 -198 199 200 237 238 -239 240 241 242 254 255 256 257 258 269 270 271 272 313 314 315 356 357 -398 0
1 2 3 4 5 6 7 8 9 10 11 12 13 14 15 16 17 -18 19 -20 21 22 23 24 25 26 -63 64 65 66 67 -68 69 70 71 108 109 110 111 112 113 114 115 152 153 -154 -155 156 157 158 195 196 197 -198 199 200 237 238 -239 240 241 242 254 255 256 257 258 269 270 271 272 313 314 315 -356 -357 -398 0
1 2 3 4 5 6 7 8 9 10 11 12 13 14 15 16 -17 18 19 -20 21 22 23 24 25 26 63 64 65 66 67 68 69 -70 71 -108 109 110 111 -112 113 114 115 152 153 -154 155 156 157 158 195 196 197 -198 199 200 237 238 -239 240 241 242 254 255 256 257 258 269 270 271 -272 313 314 315 -356 -357 398 0
1 2 3 4 5 6 7 8 9 10 11 12 13 14 15 16 17 18 19 -20 21 22 23 24 -25 26 -63 64 65 66 67 -68 69 70 71 108 109 110 111 -112 113 114 115 152 153 -154 155 -156 157 158 195 196 197 -198 199 200 237 238 239 240 241 -242 254 255 256 257 258 269 270 271 272 313 314 315 -356 -357 398 0
1 2 3 4 5 6 7 8 9 10 11 12 13 14 15 16 17 18 19 -20 -21 22 23 24 25 26 -63 64 65 66 67 -68 69 70 71 108 109 110 111 -112 113 114 115 152 153 -154 155 -156 157 158 195 196 197 -198 199 200 237 238 239 240 241 242 254 255 256 257 258 269 270 271 272 313 314 315 -356 -357 -398 0
1 2 3 4 5 6 7 8 9 10 11 12 13 14 15 16 17 18 19 -20 21 22 23 -24 25 26 63 64 65 66 67 -68 69 -70 71 108 109 -110 111 -112 113 114 115 152 153 -154 155 -156 157 158 195 196 197 -198 199 200 237 238 239 240 241 242 254 255 256 257 258 269 270 271 272 313 314 315 356 -357 -398 0
1 2 3 4 5 6 7 8 9 10 11 12 13 14 15 16 17 18 19 20 21 22 23 -24 -25 26 63 64 -65 66 67 -68 69 70 71 108 109 110 111 -112 113 114 -115 152 153 -154 155 -156 157 158 195 196 197 -198 199 200 237 238 239 240 241 -242 254 255 256 257 258 269 270 271 272 313 314 315 -356 357 398 0
1 2 3 4 5 6 7 8 9 10 11 12 13 14 15 16 17 -18 19 20 21 22 23 -24 25 26 63 64 -65 66 67 68 69 -70 71 108 109 110 111 112 113 114 -115 152 153 -154 155 -156 157 158 195 196 -197 198 199 200 237 238 -239 240 241 242 254 255 256 257 258 269 270 271 -272 313 314 315 -356 357 398 0
1 2 3 4 5 6 7 8 9 10 11 12 13 14 15 16 17 -18 19 20 21 22 23 -24 25 26 63 64 -65 66 67 68 69 -70 71 108 109 110 111 112 113 114 -115 152 -153 154 -155 156 157 158 195 196 197 -198 199 200 237 238 239 240 241 242 254 -255 256 257 258 269 270 271 -272 313 314 315 -356 357 398 0
1 2 3 4 5 6 7 8 9 10 11 12 13 14 15 16 17 -18 19 -20 21 22 23 24 25 26 63 64 65 66 67 -68 69 -70 71 108 109 -110 111 112 113 114 115 152 153 154 -155 156 157 -158 195 196 197 -198 199 200 237 238 239 240 241 242 254 -255 256 257 258 269 270 271 272 313 314 315 -356 -357 398 0
1 2 3 4 5 6 7 8 9 10 11 12 13 14 15 16 17 -18 19 -20 21 22 23 24 25 26 63 64 65 66 67 68 -69 -70 71 108 109 -110 111 112 113 114 115 152 153 154 -155 156 157 -158 195 196 197 -198 199 200 237 238 239 240 241 242 254 -255 256 257 258 269 270 271 -272 313 314 315 -356 357 398 0
1 2 3 4 5 6 7 8 9 10 11 12 13 14 15 16 17 -18 19 -20 21 22 23 24 25 26 63 64 65 66 67 68 -69 -70 71 108 109 110 111 112 113 114 -115 152 153 154 -155 156 157 -158 195 196 197 -198 199 200 237 -238 239 240 241 242 254 -255 256 257 258 269 270 271 272 313 314 315 -356 357 398 0
1 2 3 4 5 6 7 8 9 10 11 12 13 14 15 16 17 18 19 -20 -21 22 23 24 25 26 63 64 65 66 67 68 -69 -70 71 108 109 110 111 -112 113 114 -115 152 153 154 -155 156 157 -158 195 196 197 -198 199 200 237 238 239 240 241 242 254 -255 256 257 258 269 270 271 272 313 314 315 -356 357 398 0
1 2 3 4 5 6 7 8 9 10 11 12 13 14 15 16 17 -18 19 -20 21 22 23 24 25 26 -63 64 65 66 67 68 69 -70 71 108 109 110 111 112 113 114 115 152 -153 154 -155 156 157 158 195 196 197 -198 199 200 237 238 239 240 241 242 254 -255 256 257 258 269 270 271 -272 313 314 315 -356 -357 398 0
1 2 3 4 5 6 7 8 9 10 11 12 13 14 15 16 17 18 19 -20 21 22 23 -24 25 26 63 64 65 66 67 -68 69 -70 71 108 109 110 111 112 -113 114 -115 152 -153 154 -155 156 157 158 195 196 197 -198 199 200 237 238 239 240 241 242 254 255 -256 257 258 269 270 271 272 313 314 315 356 357 -398 0
1 2 3 4 5 6 7 8 9 10 11 12 13 14 15 16 17 18 19 -20 21 22 23 -24 25 26 63 64 65 66 67 -68 69 -70 71 -108 109 110 111 112 -113 114 115 152 153 -154 155 156 157 158 -195 196 197 198 199 200 237 238 239 240 241 242 254 255 256 257 258 269 270 271 -272 313 314 -315 -356 357 398 0
1 2 3 4 5 6 7 8 9 10 11 12 13 14 15 16 17 18 19 -20 21 22 23 -24 25 26 63 64 65 66 -67 68 69 -70 71 -108 109 110 111 112 -113 114 115 152 153 154 -155 156 157 158 195 196 197 -198 199 200 237 238 239 240 241 -242 254 255 256 257 258 269 270 271 -272 313 314 315 -356 357 398 0
1 2 3 4 5 6 7 8 9 10 11 12 13 14 15 16 17 18 19 -20 21 -22 23 24 25 26 63 64 65 -66 67 68 69 -70 71 -108 109 110 111 112 113 114 -115 152 153 154 -155 156 157 158 195 196 197 -198 199 200 237 238 239 240 241 242 254 255 256 257 258 -269 270 271 272 313 314 315 -356 -357 398 0
1 2 3 4 5 6 7 8 9 10 11 12 13 14 15 16 17 18 19 -20 -21 22 23 24 25 26 63 64 65 66 -67 68 69 -70 71 -108 109 110 111 112 113 114 -115 152 153 154 -155 156 157 158 195 196 197 -198 199 200 237 238 239 240 241 242 254 255 256 257 258 -269 270 271 272 313 314 315 -356 -357 398 0
1 2 3 4 5 6 7 8 9 10 11 12 13 14 15 16 17 -18 19 20 21 -22 23 24 25 26 63 64 65 66 67 68 -69 -70 71 108 109 110 111 112 113 114 -115 152 153 154 -155 156 157 -158 195 196 -197 -198 199 200 237 238 -239 240 241 242 254 255 256 257 258 269 270 271 272 313 314 315 -356 357 398 0
1 2 3 4 5 6 7 8 9 10 11 12 13 14 15 16 17 18 19 20 21 -22 23 -24 25 26 63 64 65 66 67 -68 69 -70 71 108 109 110 111 112 -113 114 -115 152 153 154 -155 156 -157 158 -195 196 197 -198 199 200 237 238 239 240 241 242 254 255 256 257 258 269 270 271 272 313 314 315 356 357 -398 0
1 2 3 4 5 6 7 8 9 10 11 12 13 14 15 16 17 18 19 -20 21 22 23 -24 25 26 63 64 65 66 67 -68 69 -70 71 108 109 110 -111 112 -113 114 115 152 -153 154 155 156 -157 158 195 196 197 -198 199 200 237 238 239 240 241 242 254 255 256 257 258 269 270 271 -272 313 314 315 356 357 -398 0
1 2 3 4 5 6 7 8 9 10 11 12 13 14 15 16 17 18 19 -20 21 22 23 -24 25 26 63 64 65 66 67 68 -69 -70 71 108 109 -110 111 -112 113 114 115 152 153 -154 155 -156 157 158 195 196 197 -198 199 200 237 238 239 240 241 242 254 255 256 257 258 269 270 271 -272 313 314 315 356 357 -398 0
1 2 3 4 5 6 7 8 9 10 11 12 13 14 15 16 17 18 19 -20 21 22 23 -24 25 26 63 64 65 66 67 68 -69 -70 71 108 109 110 111 -112 113 114 -115 152 153 -154 155 -156 157 158 195 196 197 -198 199 200 237 -238 239 240 241 242 254 255 256 257 258 269 270 271 272 313 314 315 356 357 -398 0
1 2 3 4 5 6 7 8 9 10 11 12 13 14 15 16 17 18 19 -20 21 -22 23 24 25 26 -63 64 65 66 67 68 -69 70 71 108 109 110 111 -112 113 114 115 152 -153 154 155 -156 157 158 195 196 197 -198 199 200 237 238 239 240 241 242 254 255 256 257 258 269 270 271 -272 313 314 315 -356 357 -398 0
1 2 3 4 5 6 7 8 9 10 11 12 13 14 15 16 17 18 19 -20 21 -22 23 24 25 26 63 64 65 66 67 -68 -69 70 71 108 109 -110 111 -112 113 114 115 152 153 154 155 -156 157 -158 195 196 197 -198 199 200 237 238 239 240 241 242 254 255 256 257 258 269 270 271 272 313 314 315 -356 357 -398 0
1 2 3 4 5 6 7 8 9 10 11 12 13 14 15 16 17 -18 19 -20 21 22 23 24 25 26 63 64 65 66 67 -68 -69 70 71 108 109 110 111 112 113 114 -115 152 153 -154 155 -156 157 158 -195 196 197 198 199 200 237 238 239 240 241 242 254 255 256 257 258 -269 270 271 272 313 314 315 -356 357 -398 0
1 2 3 4 5 6 7 8 9 10 11 12 13 14 15 16 17 -18 19 -20 21 22 23 24 25 26 63 64 65 66 67 -68 69 -70 71 -108 109 110 111 112 113 114 115 152 153 154 155 -156 157 158 195 196 197 -198 199 200 -237 238 239 240 241 242 254 255 256 257 258 269 270 271 -272 313 314 315 -356 -357 398 0
1 2 3 4 5 6 7 8 9 10 11 12 13 14 15 16 17 -18 19 20 21 -22 23 24 25 26 -63 64 65 66 67 68 69 -70 71 108 109 110 111 112 113 114 115 152 -153 154 155 -156 157 158 195 196 -197 -198 199 200 237 238 239 240 241 242 254 255 256 257 258 269 270 271 -272 313 314 315 -356 -357 398 0
1 2 3 4 5 6 7 8 9 10 11 12 13 14 15 16 17 -18 19 20 -21 22 23 24 25 26 -63 64 65 66 67 68 69 -70 71 108 109 110 111 112 113 114 115 152 153 -154 155 -156 157 158 195 196 -197 -198 199 200 237 238 239 240 241 242 254 255 256 257 258 269 270 271 -272 313 314 315 -356 -357 398 0
1 2 3 4 5 6 7 8 9 10 11 12 13 14 15 16 17 -18 19 -20 21 22 23 24 25 26 -63 64 65 66 67 68 69 -70 71 108 109 110 111 112 113 114 115 152 153 -154 155 -156 157 158 195 196 -197 198 199 200 237 238 -239 240 241 242 254 255 256 257 258 269 270 271 -272 313 314 315 -356 -357 398 0
1 2 3 4 5 6 7 8 9 10 11 12 13 14 15 16 17 18 19 -20 21 22 23 -24 25 26 63 64 65 -66 67 68 69 -70 71 108 109 110 111 112 -113 114 -115 152 153 -154 155 -156 157 158 195 196 -197 198 199 200 237 238 239 240 241 242 254 255 256 257 258 269 270 271 -272 313 314 315 -356 357 398 0
1 2 3 4 5 6 7 8 9 10 11 12 13 14 15 16 17 -18 19 -20 21 22 23 24 25 26 63 64 -65 66 67 68 69 -70 71 108 109 110 111 112 113 114 -115 152 153 -154 155 -156 157 158 195 196 197 198 199 200 237 238 239 -240 241 242 254 255 256 257 258 -269 270 271 -272 313 314 315 -356 357 398 0
1 2 3 4 5 6 7 8 9 10 11 12 13 14 15 16 17 -18 19 -20 21 22 23 24 25 26 63 64 65 66 67 -68 69 -70 71 108 109 110 111 112 113 114 -115 152 153 154 155 -156 157 -158 195 196 197 -198 199 200 237 238 239 -240 241 242 -254 255 256 257 258 269 270 271 272 313 314 315 -356 357 398 0
1 2 3 4 5 6 7 8 9 10 11 12 13 14 15 16 17 18 19 -20 21 22 23 -24 25 26 63 64 65 66 67 -68 69 -70 71 108 109 110 111 112 -113 114 -115 152 -153 -154 155 156 157 158 195 196 -197 198 199 200 237 238 239 240 241 242 254 255 256 257 258 269 270 271 272 313 314 -315 -356 357 398 0
1 2 3 4 5 6 7 8 9 10 11 12 13 14 15 16 17 18 -19 20 -21 22 23 24 25 26 -63 64 65 66 67 68 69 -70 71 108 109 110 111 112 113 114 -115 152 153 154 155 -156 157 158 195 196 -197 -198 199 200 237 238 239 240 241 242 254 255 -256 257 258 269 270 271 -272 313 314 315 -356 357 398 0
1 2 3 4 5 6 7 8 9 10 11 12 13 14 15 16 17 18 -19 20 21 22 23 24 -25 26 -63 64 65 66 67 -68 69 70 71 108 109 110 111 112 113 114 -115 152 153 154 155 -156 157 158 -195 196 197 -198 199 200 237 238 239 240 241 242 254 255 -256 257 258 269 270 271 -272 313 314 315 -356 357 398 0
1 2 3 4 5 6 7 8 9 10 11 12 13 14 15 16 17 18 -19 -20 21 22 23 24 25 26 -63 64 65 66 67 -68 69 70 71 108 109 110 111 112 113 114 -115 152 153 154 155 -156 157 158 195 196 197 -198 199 200 237 -238 239 240 241 242 254 255 -256 257 258 269 270 271 272 313 314 315 -356 357 -398 0
1 2 3 4 5 6 7 8 9 10 11 12 13 14 15 16 17 18 -19 -20 21 22 23 24 25 26 -63 64 65 66 67 -68 69 70 71 108 109 -110 111 112 113 114 115 152 153 154 155 -156 157 158 195 196 197 -198 199 200 237 238 239 240 241 242 254 255 -256 257 258 269 270 271 -272 313 314 315 -356 357 -398 0
1 2 3 4 5 6 7 8 9 10 11 12 13 14 15 16 -17 18 19 -20 21 22 23 24 25 26 63 64 65 66 67 -68 69 70 71 108 109 -110 111 112 -113 114 115 152 153 -154 155 156 -157 158 195 196 197 -198 199 200 237 238 239 240 241 242 254 255 256 257 258 269 270 271 -272 313 314 315 -356 357 -398 0
1 2 3 4 5 6 7 8 9 10 11 12 13 14 15 16 -17 18 19 -20 21 22 23 24 25 26 63 64 65 66 67 -68 69 70 71 108 109 110 111 112 -113 114 -115 152 153 -154 155 156 -157 158 195 196 197 -198 199 200 237 -238 239 240 241 242 254 255 256 257 258 269 270 271 272 313 314 315 -356 357 -398 0
1 2 3 4 5 6 7 8 9 10 11 12 13 14 15 16 -17 18 19 -20 21 22 23 24 25 26 63 64 65 66 67 68 69 -70 71 108 109 110 111 112 -113 114 -115 152 153 -154 155 156 -157 158 195 196 -197 198 199 200 237 238 -239 240 241 242 254 255 256 257 258 269 270 271 -272 313 314 315 -356 357 398 0
1 2 3 4 5 6 7 8 9 10 11 12 13 14 15 16 -17 18 19 20 -21 22 23 24 25 26 63 64 65 66 67 68 69 -70 71 108 109 110 111 112 -113 114 -115 152 153 -154 155 156 -157 158 195 196 -197 -198 199 200 237 238 239 240 241 242 254 255 256 257 258 269 270 271 -272 313 314 315 -356 357 398 0
1 2 3 4 5 6 7 8 9 10 11 12 13 14 15 16 17 18 19 -20 21 -22 23 24 25 26 -63 64 65 66 67 68 69 -70 71 108 109 110 111 112 -113 114 115 152 153 154 155 -156 -157 158 195 196 -197 198 199 200 237 238 239 240 241 -242 254 255 256 257 258 269 270 271 -272 313 314 315 -356 357 398 0
1 2 3 4 5 6 7 8 9 10 11 12 13 14 15 16 17 -18 19 -20 21 22 23 24 25 26 63 64 65 66 67 68 -69 -70 71 108 109 110 111 112 113 114 -115 152 153 -154 155 -156 157 158 195 196 -197 198 199 200 237 238 239 240 241 -242 254 255 256 257 258 -269 270 271 272 313 314 315 -356 357 398 0
1 2 3 4 5 6 7 8 9 10 11 12 13 14 15 16 17 18 19 -20 21 -22 23 24 25 26 63 64 65 66 67 68 -69 -70 71 108 109 -110 111 112 113 114 -115 152 153 154 -155 156 -157 158 195 196 197 -198 199 200 237 238 239 240 241 242 254 255 256 257 258 -269 270 271 272 313 314 315 356 357 -398 0
1 2 3 4 5 6 7 8 9 10 11 12 13 14 15 16 17 18 19 -20 21 -22 23 24 25 26 -63 64 65 66 67 -68 69 70 71 108 109 110 111 112 -113 114 115 152 153 154 -155 156 -157 158 195 196 197 -198 199 200 237 238 239 240 241 -242 254 255 256 257 258 269 270 271 272 313 314 315 -356 357 -398 0
1 2 3 4 5 6 7 8 9 10 11 12 13 14 15 16 17 -18 19 -20 21 22 23 24 25 26 -63 64 65 66 67 -68 69 70 71 108 109 110 111 112 113 114 115 152 153 -154 155 -156 157 158 195 196 197 -198 199 200 237 -238 239 240 241 242 254 255 256 257 258 269 270 271 272 313 314 315 -356 -357 -398 0
1 2 3 4 5 6 7 8 9 10 11 12 13 14 15 16 17 18 19 -20 21 -22 23 24 25 26 -63 64 65 66 67 -68 69 70 71 108 109 110 111 -112 113 114 115 152 -153 154 155 -156 157 158 195 196 197 -198 199 200 237 238 239 240 241 242 254 255 256 257 258 269 270 271 272 313 314 315 -356 -357 -398 0
1 2 3 4 5 6 7 8 9 10 11 12 13 14 15 16 17 -18 19 20 21 -22 23 24 25 26 63 64 65 66 67 -68 69 -70 71 108 109 -110 111 112 113 114 115 152 153 154 155 -156 157 -158 195 196 -197 -198 199 200 237 238 239 240 241 242 254 255 256 257 258 269 270 271 272 313 314 315 -356 -357 398 0
1 2 3 4 5 6 7 8 9 10 11 12 13 14 15 16 17 -18 19 20 21 -22 23 24 25 26 63 64 65 66 67 68 -69 -70 71 108 109 110 111 112 113 114 -115 152 153 154 155 -156 157 -158 195 196 -197 -198 199 200 237 -238 239 240 241 242 254 255 256 257 258 269 270 271 272 313 314 315 -356 357 398 0
1 2 3 4 5 6 7 8 9 10 11 12 13 14 15 16 17 -18 19 20 21 -22 23 24 25 26 63 64 65 66 67 68 -69 -70 71 108 109 -110 111 112 113 114 115 152 153 154 155 -156 157 -158 195 196 -197 -198 199 200 237 238 239 240 241 242 254 255 256 257 258 269 270 271 -272 313 314 315 -356 357 398 0
1 2 3 4 5 6 7 8 9 10 11 12 13 14 15 16 17 18 19 20 -21 -22 23 24 25 26 63 64 65 66 67 68 -69 -70 71 108 109 110 111 -112 113 114 -115 152 153 154 155 -156 157 -158 195 196 -197 -198 199 200 237 238 239 240 241 242 254 255 256 257 258 269 270 271 272 313 314 315 -356 357 398 0
1 2 3 4 5 6 7 8 9 10 11 12 13 14 15 16 17 18 19 -20 21 -22 23 24 25 26 63 64 65 66 67 68 -69 -70 71 108 109 110 111 -112 113 114 -115 152 153 154 155 -156 157 -158 195 196 -197 198 199 200 237 238 -239 240 241 242 254 255 256 257 258 269 270 271 272 313 314 315 -356 357 398 0
1 2 3 4 5 6 7 8 9 10 11 12 13 14 15 16 17 18 19 -20 21 22 23 -24 25 26 63 64 -65 66 67 68 69 -70 71 108 109 110 111 -112 113 114 -115 152 -153 154 155 -156 157 158 195 196 197 198 199 200 237 238 239 240 241 242 254 -255 256 257 258 269 270 271 -272 313 314 315 -356 357 398 0
1 2 3 4 5 6 7 8 9 10 11 12 13 14 15 16 17 18 19 -20 -21 22 23 24 25 26 63 64 65 66 67 68 -69 -70 71 -108 109 110 111 112 113 114 -115 152 153 154 155 156 -157 158 195 196 197 -198 199 200 237 238 239 240 241 242 254 255 256 -257 258 -269 270 271 -272 313 314 315 356 357 398 0
1 2 3 4 5 6 7 8 9 10 11 12 13 14 15 16 17 18 19 -20 21 -22 23 24 25 26 63 64 65 66 67 68 -69 -70 71 -108 109 110 111 112 113 114 -115 152 153 154 155 156 -157 158 195 196 197 -198 199 200 237 238 239 240 -241 242 254 255 256 257 258 -269 270 271 -272 313 314 315 356 357 398 0
1 2 3 4 5 6 7 8 9 10 11 12 13 14 15 16 -17 18 19 20 21 -22 23 24 25 26 63 64 65 66 67 68 69 -70 71 108 109 110 111 112 -113 114 -115 152 -153 154 155 156 -157 158 195 196 -197 -198 199 200 237 238 239 240 241 242 254 255 256 257 258 269 270 271 -272 313 314 315 -356 357 398 0
1 2 3 4 5 6 7 8 9 10 11 12 13 14 15 16 17 18 19 20 21 -22 23 24 -25 26 -63 64 -65 66 67 68 69 70 71 108 109 110 111 112 113 114 -115 152 153 154 -155 156 -157 158 195 196 197 -198 199 200 237 238 -239 240 241 242 254 255 256 257 258 269 270 271 -272 313 314 315 -356 357 398 0
1 2 3 4 5 6 7 8 9 10 11 12 13 14 15 16 17 18 19 20 21 -22 23 24 -25 26 -63 64 -65 66 67 68 69 70 71 108 109 110 111 112 113 114 -115 152 153 154 155 -156 -157 158 195 196 197 -198 199 200 237 -238 239 240 241 242 254 255 256 257 258 269 270 271 -272 313 314 315 -356 357 398 0
1 2 3 4 5 6 7 8 9 10 11 12 13 14 15 16 17 -18 19 20 21 22 23 24 -25 26 63 64 65 66 67 -68 -69 70 71 108 109 110 111 112 113 114 -115 152 -153 154 155 -156 157 158 195 -196 197 -198 199 200 237 238 239 240 241 242 254 255 256 257 258 269 270 271 -272 313 314 315 -356 357 398 0
1 2 3 4 5 6 7 8 9 10 11 12 13 14 15 16 17 18 19 -20 21 22 23 -24 25 26 63 64 65 66 -67 68 69 -70 71 108 109 110 111 112 -113 114 -115 152 -153 154 155 -156 157 158 195 196 -197 198 199 200 237 238 239 240 241 242 254 255 256 257 258 269 270 271 -272 313 314 315 -356 357 398 0
1 2 3 4 5 6 7 8 9 10 11 12 13 14 15 16 17 18 19 -20 -21 22 23 24 25 26 63 64 65 66 67 -68 69 -70 71 108 109 110 111 112 -113 114 -115 152 153 154 155 -156 157 -158 195 196 -197 198 199 200 237 238 239 240 241 242 254 255 -256 257 258 269 270 271 272 313 314 315 -356 357 398 0
1 2 3 4 5 6 7 8 9 10 11 12 13 14 15 16 17 18 19 -20 21 22 23 -24 25 26 63 64 65 -66 67 68 69 -70 71 -108 109 110 111 112 113 114 -115 152 153 154 155 -156 157 158 195 196 197 -198 199 200 237 238 239 240 241 242 -254 255 256 257 258 269 270 271 -272 313 314 315 -356 357 398 0
1 2 3 4 5 6 7 8 9 10 11 12 13 14 15 16 17 18 19 -20 -21 22 23 24 25 26 63 64 -65 66 67 68 69 -70 71 -108 109 110 111 112 113 114 -115 152 153 154 155 -156 157 158 195 196 197 198 199 200 237 238 239 240 241 242 254 255 -256 257 258 -269 270 271 -272 313 314 315 -356 357 398 0
1 2 3 4 5 6 7 8 9 10 11 12 13 14 15 16 17 18 19 20 21 -22 23 -24 25 26 63 64 -65 66 67 68 69 -70 71 -108 109 110 111 -112 113 114 115 152 153 154 155 -156 157 158 195 196 197 -198 199 200 237 238 239 240 241 -242 254 255 256 257 258 269 270 271 -272 313 314 315 -356 357 398 0
1 2 3 4 5 6 7 8 9 10 11 12 13 14 15 16 -17 18 19 -20 21 22 23 24 25 26 63 64 65 66 67 68 69 -70 71 -108 109 110 111 112 113 114 -115 152 153 154 155 156 -157 158 195 196 197 -198 199 200 237 238 -239 240 241 242 -254 255 256 257 258 269 270 271 -272 313 314 315 -356 357 398 0
